KinOrder  30  (Max order in the kinetic energy expansion)
PotOrder  16  (Max order in the potential energy expansion)

Natoms 4       (Number of atoms)
Nmodes 6       (Number of modes = 3*Natoms-6)

(ACTIVE SPACE CUTOFFS:)
PRIMITIVES
  Npolyads    24       (how many polyads we calculate)
  enercut    60000.   (energy cut in the primitive matrix for the diagonalization)
END

contraction
  npolyads     12
  enercut       80000.0
  coeff_thresh  1.0e-14
  degeneracy    1e-2
  sample_points  40
  sample_attempts 500
  symm_toler      1e-3
end


SYMGROUP   Cs(M)


DIAGONALIZER
  SYEV
  enermax 15000
end

dstep 0.005    (finite difference element for each mode )

COORDS     local
frame      BC-Z-CD-X
TRANSFORM  r1-r2-r3-a1-rho2-tau-abs
MOLTYPE    abcd
REFER-CONF non-RIGID  (Reference configuarion: RIGID or NON-RIGID)
MOLECULE   HOPO (Identifying the Molecule, e.g. PH3, BiH3 - optional)

verbose 5

ZMAT
    P   0  0  0  0  30.97376199768
    O   1  0  0  0  15.9905256
    O   1  2  0  0  15.9905256     
    H   2  1  3  2  1.007276
end


CHECK_POINT
ascii
potential   read with_modes
kinetic     read with_modes
external    none
basis_set   save
CONTRACT    save
matelem     save  split
extmatelem  none  split
EIGENFUNC   save
END


sparse


BASIC-FUNCTION POTEN
Mode 1 9
1, 0 - 8, morse(x-xe)
Mode 2 9
1, 0 - 8, morse(x-xe)
Mode 3 9
1, 0 - 8, morse(x-xe)
Mode 4 18
1, 0 - 8, cos(a)-cos(a0)
2, 0 - 8, cos(a)-cos(a0), 1 sin 1.0 1
Mode 5 18
1, 0 - 8, cos(a0)-cos(a)
2, 0 - 8, cos(a0)-cos(a), 1 sin 1.0 1
Mode 6 9
1, 0 - 8, cosnx
end



BASIC-FUNCTION external
Mode 1 7
1, 0 : 6, x-xe
Mode 2 7
1, 0 : 6, x-xe
Mode 3 7
1, 0 : 6, x-xe
Mode 4 7
1, 0 : 6, x-xe
Mode 5 7
1, 0 : 6, x-xe
Mode 6 14
1, 0 : 6, cosnx
2, 0 : 6, cosnx, 1 sin 1.0 1
end


BASIC-FUNCTION  mass
Mode     1   2
         1   1   R    -1    1
         2   1   R    -2    1
Mode     2   2
         1   1   R    -1    1
         2   1   R    -2    1
Mode     3   2
         1   1   R    -1    1
         2   1   R    -2    1
Mode     4   9
         1   1  sin    1    1
         2   1  cos    1    1
         3   1  csc    1    1
         4   1  csc    2    1
         5   1  cot    1    1
         6   1  cot    2    1
         7   2  cos    1    1 csc     2    1
         8   1  sin    1    2
         9   1  cos    2    1
Mode     5   9
         1   1  sin    1    1
         2   1  cos    1    1
         3   1  csc_   1    1
         4   1  csc_   2    1
         5   1  cot_   1    1
         6   1  cot_   2    1
         7   2  cos    1    1 csc_    2    1
         8   1  sin    1    2
         9   1  cos    2    1
Mode     6   4
         1   1  sin    1    1
         2   1  cos    1    1
         3   1  cos    2    1
         4   1  sin    1    2
end



     (type     chi_kin   chi_pot)
BASIS
  0,'JKtau', Jrot 0
  1,'numerov','auto', 'pot-auto',  range 0, 2, resc 3.0, points 1000, borders 1.3,2.6
  2,'numerov','auto', 'pot-auto',  range 0, 2, resc 4.0, points 1000, borders 1.04,2.5
  3,'numerov','auto', 'pot-auto',  range 0, 2, resc 4.0, points 1000, borders 0.45,1.9
  4,'numerov','auto', 'pot-auto', range 0, 2, resc 3.0, points 1000, borders 50,162 deg
  5,'sinrho-legendre-k-sing','auto-singular','pot-auto', range 0,4, resc 1.0, points 1000, borders 0,170 deg , lmax 1
  5,'fourier-unoptimised','auto', 'pot-auto', range 0,24,  resc 1.0, points 1000, borders 0., 360.0 deg, periodic 1
END




EQUILIBRIUM
rPO         0         1.60346169  
rOP         0         1.46783211  
rOH         0         0.96779675  
thetaOCH    0       110.73674459  deg
thetaOCH    0       113.09775988  deg
tau         0        0.00 deg
end


SPECPARAM
aPO         0    1.67613068    
aOP         0    2.63948387  
aOH         0    2.02179144    
END



(HOPO_new_fit_1.res)
poten
pot_type  POTEN_ABCD_MORSE_COSALPHA_ALPHA_COSNTAU-SIN-SIN
coeff     powers
re_PO        0 0 0 0 0 0        0         1.60346169    
re_OP        0 0 0 0 0 0        0         1.46783211    
re_OH        0 0 0 0 0 0        0         0.96779675    
ae_OPO       0 0 0 0 0 0        0         110.73674459  deg  
ae_POH       0 0 0 0 0 0        0         113.09775988  deg  
a2           0 0 0 0 0 0        0         1.67613068
a1           0 0 0 0 0 0        0         2.63948387
a3           0 0 0 0 0 0        0         2.02179144
f0   0   0   0   0   0   0   9       1942.0897    
f0   0   0   0   0   0   1   9      -604.14838    
f0   0   0   0   0   1   0   9       986.46842    
f0   0   0   0   1   0   0   9      -391.50914    
f0   0   0   1   0   0   0   9       558.46483    
f0   0   1   0   0   0   0   9       584.34540    
f1   1   0   0   0   0   0   9      -1450.0547    
f0   0   0   0   0   0   2   8      -1653.6843    
f0   0   0   0   0   1   1   7       814.26741    
f0   0   0   0   0   2   0   7       11262.934    
f0   0   0   0   1   0   1   7       2177.7880    
f0   0   0   0   1   1   0   6      -1218.8093    
f0   0   0   0   2   0   0   7       40304.750    
f0   0   0   1   0   0   1   7      -462.73243    
f0   0   0   1   0   1   0   6      -5615.4501    
f0   0   0   1   1   0   0   6       1205.4923    
f0   0   0   2   0   0   0   7       49108.858    
f0   0   1   0   0   0   1   7      -817.67011    
f0   0   1   0   0   1   0   6      -332.99961    
f0   0   1   0   1   0   0   6      -6077.6179    
f0   0   1   1   0   0   0   6      -326.53937    
f0   0   2   0   0   0   0   7       36657.127    
f1   1   0   0   0   0   1   7       335.43195    
f1   1   0   0   0   1   0   6      -9593.9287    
f1   1   0   0   1   0   0   6      -5446.1546    
f1   1   0   1   0   0   0   6       1015.0893    
f1   1   1   0   0   0   0   6       3723.9970    
f2   2   0   0   0   0   0   7       44968.166    
f0   0   0   0   0   0   3   7      -16.071974    
f0   0   0   0   0   1   2   6      -784.46438    
f0   0   0   0   0   2   1   6      -645.06326    
f0   0   0   0   0   3   0   6       3223.8990    
f0   0   0   0   1   0   2   6      -650.33277    
f0   0   0   0   1   1   1   5      -12116.602    
f0   0   0   0   1   2   0   5       4254.5939    
f0   0   0   0   2   0   1   6       391.23872    
f0   0   0   0   2   1   0   5       550.09540    
f0   0   0   0   3   0   0   6       8207.3759    
f0   0   0   1   0   0   2   6      -139.79102    
f0   0   0   1   0   1   1   5       44.913296    
f0   0   0   1   0   2   0   5      -2961.9938    
f0   0   0   1   1   0   1   5       3074.9173    
f0   0   0   1   1   1   0   4      -280.47821    
f0   0   0   1   2   0   0   5      -1538.9918    
f0   0   0   2   0   0   1   6      -340.79977    
f0   0   0   2   0   1   0   5      -2687.8721    
f0   0   0   2   1   0   0   5       428.93459    
f0   0   0   3   0   0   0   6      -7067.7663    
f0   0   1   0   0   0   2   6       160.77167    
f0   0   1   0   0   1   1   5       530.42417    
f0   0   1   0   0   2   0   5       745.62173    
f0   0   1   0   1   0   1   5      -1163.3947    
f0   0   1   0   1   1   0   4      -1431.8616    
f0   0   1   0   2   0   0   5      -14683.949    
f0   0   1   1   0   0   1   5      -82.501039    
f0   0   1   1   0   1   0   4      -83.698466    
f0   0   1   1   1   0   0   4      -312.77827    
f0   0   1   2   0   0   0   5      -151.10146    
f0   0   2   0   0   0   1   6      -190.91459    
f0   0   2   0   0   1   0   5       103.70435    
f0   0   2   0   1   0   0   5      -631.05387    
f0   0   2   1   0   0   0   5      -129.44530    
f0   0   3   0   0   0   0   6       7610.5969    
f1   1   0   0   0   0   2   6       1292.3245    
f1   1   0   0   0   1   1   5      -111.26129    
f1   1   0   0   0   2   0   5      -1793.5807    
f1   1   0   0   1   0   1   5       3111.5354    
f1   1   0   0   1   1   0   4      -1169.0672    
f1   1   0   0   2   0   0   5      -24352.196    
f1   1   0   1   0   0   1   5       970.74836    
f1   1   0   1   0   1   0   4       6179.9169    
f1   1   0   1   1   0   0   4      -1222.3518    
f1   1   0   2   0   0   0   5       769.61109    
f1   1   1   0   0   0   1   5       505.56109    
f1   1   1   0   0   1   0   4      -1746.3295    
f1   1   1   0   1   0   0   4       9367.5767    
f1   1   1   1   0   0   0   4       177.71834    
f1   1   2   0   0   0   0   5       307.49986    
f2   2   0   0   0   0   1   6       26.554512    
f2   2   0   0   0   1   0   5       1667.4986    
f2   2   0   0   1   0   0   5       6569.8885    
f2   2   0   1   0   0   0   5      -1566.0470    
f2   2   1   0   0   0   0   5       1064.4424    
f3   3   0   0   0   0   0   6      -9024.9770    
f0   0   0   0   0   0   4   6       18.602001    
f0   0   0   0   0   1   3   5      -135.09225    
f0   0   0   0   0   2   2   5       964.13842    
f0   0   0   0   0   3   1   5      -100.02354    
f0   0   0   0   0   4   0   5       3134.4734    
f0   0   0   0   1   0   3   5      -154.84702    
f0   0   0   0   1   1   2   4      -506.29919    
f0   0   0   0   1   2   1   4       1408.8912    
f0   0   0   0   1   3   0   4      -532.58782    
f0   0   0   0   2   0   2   5      -585.94382    
f0   0   0   0   2   1   1   4       3271.5288    
f0   0   0   0   2   2   0   4      -744.39020    
f0   0   0   0   3   0   1   5       4128.6553    
f0   0   0   0   3   1   0   4       402.59115    
f0   0   0   0   4   0   0   5       27565.498    
f0   0   0   1   0   0   3   5      -28.977034    
f0   0   0   1   0   1   2   4       346.66404    
f0   0   0   1   0   2   1   4      -808.00911    
f0   0   0   1   0   3   0   4      -1713.4264    
f0   0   0   1   1   0   2   4      -479.79722    
f0   0   0   1   1   1   1   3       90.286192    
f0   0   0   1   1   2   0   3       1614.4642    
f0   0   0   1   2   0   1   4       471.86128    
f0   0   0   1   2   1   0   3       2464.1044    
f0   0   0   1   3   0   0   4       743.69819    
f0   0   0   2   0   0   2   5      -146.23995    
f0   0   0   2   0   1   1   4       326.93637    
f0   0   0   2   0   2   0   4      -3048.4879    
f0   0   0   2   1   0   1   4       1915.2948    
f0   0   0   2   1   1   0   3      -904.11264    
f0   0   0   2   2   0   0   4      -2233.1948    
f0   0   0   3   0   0   1   5      -259.16177    
f0   0   0   3   0   1   0   4      -86.956840    
f0   0   0   3   1   0   0   4       553.61141    
f0   0   0   4   0   0   0   5       3724.3741    
f0   0   1   0   0   0   3   5      -13.617862    
f0   0   1   0   0   1   2   4      -115.56226    
f0   0   1   0   0   2   1   4      -522.87554    
f0   0   1   0   0   3   0   4      -495.05381    
f0   0   1   0   1   0   2   4      -203.56203    
f0   0   1   0   1   1   1   3       2063.5584    
f0   0   1   0   1   2   0   3      -106.27838    
f0   0   1   0   2   0   1   4      -1413.7762    
f0   0   1   0   2   1   0   3      -1524.5908    
f0   0   1   0   3   0   0   4      -8458.2479    
f0   0   1   1   0   0   2   4      -100.83035    
f0   0   1   1   0   1   1   3      -561.70364    
f0   0   1   1   0   2   0   3      -294.43808    
f0   0   1   1   1   0   1   3      -1399.1306    
f0   0   1   1   1   1   0   2      -932.95261    
f0   0   1   1   2   0   0   3       624.64998    
f0   0   1   2   0   0   1   4       43.625209    
f0   0   1   2   1   0   0   3      -262.15213    
f0   0   1   3   0   0   0   4      -198.00552    
f0   0   2   0   0   0   2   5       284.88630    
f0   0   2   0   0   1   1   4       117.82069    
f0   0   2   0   0   2   0   4       273.21872    
f0   0   2   0   1   0   1   4      -705.39897    
f0   0   2   0   1   1   0   3      -72.790105    
f0   0   2   0   2   0   0   4      -7452.1748    
f0   0   2   1   0   0   1   4      -26.651186    
f0   0   2   1   0   1   0   3       120.53517    
f0   0   2   1   1   0   0   3      -353.95379    
f0   0   2   2   0   0   0   4      -181.04998    
f0   0   3   0   0   0   1   5       15.979189    
f0   0   3   0   0   1   0   4       136.78511    
f0   0   3   0   1   0   0   4       463.61561    
f0   0   3   1   0   0   0   4      -59.215721    
f0   0   4   0   0   0   0   5       4219.9532    
f1   1   0   0   0   0   3   5       53.588869    
f1   1   0   0   0   1   2   4       647.50341    
f1   1   0   0   0   2   1   4       412.25311    
f1   1   0   0   0   3   0   4      -4174.7048    
f1   1   0   0   1   0   2   4       1430.7116    
f1   1   0   0   1   1   1   3      -2734.6489    
f1   1   0   0   1   2   0   3      -1801.6917    
f1   1   0   0   2   0   1   4      -2358.5836    
f1   1   0   0   2   1   0   3       2969.1145    
f1   1   0   0   3   0   0   4      -15194.548    
f1   1   0   1   0   0   2   4       136.35768    
f1   1   0   1   0   1   1   3       150.73003    
f1   1   0   1   0   2   0   3       4335.0393    
f1   1   0   1   1   0   1   3      -3781.3746    
f1   1   0   1   1   1   0   2       180.98265    
f1   1   0   1   2   0   0   3       1548.3699    
f1   1   0   2   0   0   1   4       820.52972    
f1   1   0   2   0   1   0   3       2465.8143    
f1   1   0   2   1   0   0   3      -784.28723    
f1   1   0   3   0   0   0   4       401.95048    
f1   1   1   0   0   0   2   4      -205.97694    
f1   1   1   0   0   1   1   3       120.96732    
f1   1   1   0   0   2   0   3       1632.9510    
f1   1   1   0   1   0   1   3       1162.5297    
f1   1   1   0   1   1   0   2       236.63010    
f1   1   1   0   2   0   0   3       15463.916    
f1   1   1   1   0   0   1   3       358.66852    
f1   1   1   1   0   1   0   2       270.41531    
f1   1   1   1   1   0   0   2       608.64576    
f1   1   1   2   0   0   0   3       266.86658    
f1   1   2   0   0   1   0   3      -900.70534    
f1   1   2   0   1   0   0   3       69.321239    
f1   1   2   1   0   0   0   3       52.058990    
f1   1   3   0   0   0   0   4      -353.54920    
f2   2   0   0   0   0   2   5       352.04235    
f2   2   0   0   0   1   1   4      -935.86438    
f2   2   0   0   0   2   0   4      -4141.8407    
f2   2   0   0   1   0   1   4      -300.81695    
f2   2   0   0   1   1   0   3       137.97900    
f2   2   0   0   2   0   0   4      -9727.5894    
f2   2   0   1   0   0   1   4      -314.40318    
f2   2   0   1   0   1   0   3      -732.44834    
f2   2   0   2   0   0   0   4      -1552.5477    
f2   2   1   0   0   0   1   4       59.867805    
f2   2   1   0   0   1   0   3      -510.51345    
f2   2   1   0   1   0   0   3      -2431.0659    
f2   2   1   1   0   0   0   3      -163.12539    
f2   2   2   0   0   0   0   4       674.77149    
f3   3   0   0   0   0   1   5       172.61320    
f3   3   0   0   0   1   0   4       1597.9657    
f3   3   0   0   1   0   0   4       3390.8287    
f3   3   0   1   0   0   0   4      -212.31258    
f3   3   1   0   0   0   0   4       141.27941    
f4   4   0   0   0   0   0   5       2940.3385    
f0   0   0   0   0   0   5   5      -1.5876377    
f0   0   0   0   0   1   4   4      0.22850004    
f0   0   0   0   0   2   3   4      -136.53263    
f0   0   0   0   0   3   2   4      -317.37164    
f0   0   0   0   0   4   1   4      -83.345866    
f0   0   0   0   0   5   0   4       2169.6536    
f0   0   0   0   1   0   4   4      -9.9300245    
f0   0   0   0   1   1   3   3       46.112503    
f0   0   0   0   1   2   2   3      -619.02176    
f0   0   0   0   1   3   1   3      -1482.8518    
f0   0   0   0   1   4   0   3       110.56798    
f0   0   0   0   2   0   3   4      -27.513126    
f0   0   0   0   2   1   2   3      -222.03197    
f0   0   0   0   2   2   1   3       1456.0605    
f0   0   0   0   3   0   2   4      -210.55788    
f0   0   0   0   3   1   1   3      -9227.3726    
f0   0   0   0   3   2   0   3       5568.1441    
f0   0   0   0   4   0   1   4       1039.5113    
f0   0   0   0   4   1   0   3       2436.8783    
f0   0   0   0   5   0   0   4       8353.9078    
f0   0   0   1   0   0   4   4      -8.9450626    
f0   0   0   1   0   1   3   3      -135.24159    
f0   0   0   1   0   2   2   3       269.24093    
f0   0   0   1   0   3   1   3      -73.035068    
f0   0   0   1   0   4   0   3      -1057.0003    
f0   0   0   1   1   0   3   3      -218.67582    
f0   0   0   1   1   1   2   2      -520.43681    
f0   0   0   1   1   2   1   2       3921.1065    
f0   0   0   1   1   3   0   2      -1086.1873    
f0   0   0   1   2   0   2   3      -204.70192    
f0   0   0   1   2   1   1   2       1386.5660    
f0   0   0   1   2   2   0   2       370.07582    
f0   0   0   1   3   0   1   3       4501.7878    
f0   0   0   1   3   1   0   2       1526.3128    
f0   0   0   1   4   0   0   3      -715.15083    
f0   0   0   2   0   0   3   4      -18.297856    
f0   0   0   2   0   1   2   3       266.00101    
f0   0   0   2   0   2   1   3      -569.55421    
f0   0   0   2   0   3   0   3      -3300.1970    
f0   0   0   2   1   0   2   3      -285.16206    
f0   0   0   2   1   1   1   2      -764.26802    
f0   0   0   2   1   2   0   2       1203.3898    
f0   0   0   2   2   1   0   2       556.25885    
f0   0   0   2   3   0   0   3      -416.32148    
f0   0   0   3   0   0   2   4      -123.98993    
f0   0   0   3   0   1   1   3       366.80923    
f0   0   0   3   0   2   0   3      -1167.8595    
f0   0   0   3   1   0   1   3       1276.6326    
f0   0   0   3   1   1   0   2       168.36860    
f0   0   0   3   2   0   0   3      -337.62238    
f0   0   0   4   0   0   1   4      -179.73492    
f0   0   0   4   0   1   0   3       708.50811    
f0   0   0   4   1   0   0   3      -190.65557    
f0   0   0   5   0   0   0   4       1397.7146    
f0   0   1   0   0   0   4   4      -7.0184415    
f0   0   1   0   0   1   3   3      -62.792601    
f0   0   1   0   0   2   2   3      -363.71017    
f0   0   1   0   0   3   1   3      -178.43072    
f0   0   1   0   0   4   0   3      -56.010042    
f0   0   1   0   1   0   3   3      -72.609223    
f0   0   1   0   1   1   2   2      -541.64503    
f0   0   1   0   1   2   1   2      -1979.1818    
f0   0   1   0   1   3   0   2      -1073.1759    
f0   0   1   0   2   0   2   3      -539.51404    
f0   0   1   0   2   1   1   2      -296.92806    
f0   0   1   0   2   2   0   2      -686.63347    
f0   0   1   0   3   0   1   3      -1490.7109    
f0   0   1   0   3   1   0   2      -2553.2301    
f0   0   1   0   4   0   0   3      -10246.679    
f0   0   1   1   0   0   3   3      -30.511955    
f0   0   1   1   0   1   2   2      -348.56330    
f0   0   1   1   0   2   1   2      -943.58050    
f0   0   1   1   0   3   0   2      -1208.2086    
f0   0   1   1   1   0   2   2      -185.33361    
f0   0   1   1   1   1   1   1      -1431.2722    
f0   0   1   1   1   2   0   1      -1822.4255    
f0   0   1   1   2   0   1   2      -1045.5908    
f0   0   1   1   2   1   0   1      -1896.4855    
f0   0   1   1   3   0   0   2      -378.85177    
f0   0   1   2   0   0   2   3      -36.208559    
f0   0   1   2   0   1   1   2      -502.77033    
f0   0   1   2   0   2   0   2       46.596446    
f0   0   1   2   1   0   1   2      -732.24967    
f0   0   1   2   1   1   0   1      -856.79872    
f0   0   1   2   2   0   0   2      -446.43670    
f0   0   1   3   0   0   1   3       106.65676    
f0   0   1   3   0   1   0   2      -106.11494    
f0   0   1   4   0   0   0   3      -240.13221    
f0   0   2   0   0   0   3   4      -10.820022    
f0   0   2   0   0   1   2   3       32.771678    
f0   0   2   0   0   2   1   3      -13.583529    
f0   0   2   0   0   3   0   3      -240.61112    
f0   0   2   0   1   0   2   3      -11.885782    
f0   0   2   0   1   1   1   2       1715.6606    
f0   0   2   0   1   2   0   2      -338.31368    
f0   0   2   0   2   0   1   3      -766.13285    
f0   0   2   0   2   1   0   2      -233.44937    
f0   0   2   0   3   0   0   3      -2312.2811    
f0   0   2   1   0   0   2   3      -36.473389    
f0   0   2   1   0   1   1   2      -148.47327    
f0   0   2   1   1   0   1   2      -791.17339    
f0   0   2   1   1   1   0   1      -572.91386    
f0   0   2   1   2   0   0   2      -190.64463    
f0   0   2   2   0   0   1   3      -60.324516    
f0   0   2   2   1   0   0   2      -243.63160    
f0   0   2   3   0   0   0   3       72.531642    
f0   0   3   0   0   0   2   4       265.18479    
f0   0   3   0   0   1   1   3      -20.740685    
f0   0   3   0   0   2   0   3       245.86946    
f0   0   3   0   1   0   1   3      -337.74344    
f0   0   3   0   1   1   0   2      -186.24754    
f0   0   3   0   2   0   0   3      -3972.7291    
f0   0   3   1   0   0   1   3      -18.739926    
f0   0   3   1   0   1   0   2      -52.438459    
f0   0   3   1   1   0   0   2      -184.76512    
f0   0   3   2   0   0   0   3      -168.19978    
f0   0   4   0   0   0   1   4       7.7830015    
f0   0   4   0   0   1   0   3       119.43254    
f0   0   4   0   1   0   0   3       538.52077    
f0   0   4   1   0   0   0   3       44.360908    
f0   0   5   0   0   0   0   4       2687.8642    
f1   1   0   0   0   0   4   4      -1.7138864    
f1   1   0   0   0   1   3   3       202.67340    
f1   1   0   0   0   2   2   3      -1027.7634    
f1   1   0   0   0   3   1   3       227.76313    
f1   1   0   0   0   4   0   3      -522.77097    
f1   1   0   0   1   0   3   3       55.847049    
f1   1   0   0   1   1   2   2       1595.9701    
f1   1   0   0   1   2   1   2       3157.9262    
f1   1   0   0   1   3   0   2      -922.59736    
f1   1   0   0   2   0   2   3       1898.9284    
f1   1   0   0   2   1   1   2      -3336.0929    
f1   1   0   0   2   2   0   2      -7040.3821    
f1   1   0   0   3   0   1   3       232.35558    
f1   1   0   0   3   1   0   2      -4093.2389    
f1   1   0   0   4   0   0   3      -22936.900    
f1   1   0   1   0   0   3   3       43.696683    
f1   1   0   1   0   1   2   2       77.957513    
f1   1   0   1   0   2   1   2       904.94488    
f1   1   0   1   0   3   0   2       4636.3039    
f1   1   0   1   1   0   2   2       844.44324    
f1   1   0   1   1   1   1   1      -814.85851    
f1   1   0   1   1   2   0   1      -273.58813    
f1   1   0   1   2   0   1   2       108.74430    
f1   1   0   1   2   1   0   1       1458.2395    
f1   1   0   1   3   0   0   2      -402.73763    
f1   1   0   2   0   0   2   3       270.93256    
f1   1   0   2   0   1   1   2       34.255562    
f1   1   0   2   0   2   0   2       3216.2172    
f1   1   0   2   1   0   1   2      -2688.0969    
f1   1   0   2   1   1   0   1       1194.8664    
f1   1   0   2   2   0   0   2       1811.9743    
f1   1   0   3   0   0   1   3       771.40814    
f1   1   0   3   0   1   0   2      -310.42002    
f1   1   0   3   1   0   0   2      -489.84582    
f1   1   0   4   0   0   0   3      -227.69318    
f1   1   1   0   0   0   3   3       40.485715    
f1   1   1   0   0   1   2   2       247.60289    
f1   1   1   0   0   2   1   2       515.44069    
f1   1   1   0   0   3   0   2       168.99297    
f1   1   1   0   1   0   2   2      -130.76193    
f1   1   1   0   1   1   1   1       999.14478    
f1   1   1   0   1   2   0   1       3783.4270    
f1   1   1   0   2   0   1   2       2471.1986    
f1   1   1   0   2   1   0   1       1527.9305    
f1   1   1   0   3   0   0   2       15642.157    
f1   1   1   1   0   0   2   2       143.22833    
f1   1   1   1   0   1   1   1       1078.8597    
f1   1   1   1   0   2   0   1       605.14347    
f1   1   1   1   1   0   1   1       2352.2420    
f1   1   1   1   1   1   0   1       3397.9259    
f1   1   1   2   0   0   1   2       171.79319    
f1   1   1   2   0   1   0   1      -187.21970    
f1   1   1   2   1   0   0   1       1246.0383    
f1   1   1   3   0   0   0   2       355.99169    
f1   1   2   0   0   0   2   3      -177.95844    
f1   1   2   0   0   1   1   2       260.25354    
f1   1   2   0   0   2   0   2       455.80984    
f1   1   2   0   1   1   0   1      -243.12295    
f1   1   2   0   2   0   0   2       3422.0399    
f1   1   2   1   0   0   1   2       93.988151    
f1   1   2   1   0   1   0   1      -573.02681    
f1   1   2   1   1   0   0   1       1252.1779    
f1   1   2   2   0   0   0   2       350.51329    
f1   1   3   0   0   0   1   3      -60.130557    
f1   1   3   0   0   1   0   2      -594.18345    
f1   1   3   0   1   0   0   2      -331.65746    
f1   1   3   1   0   0   0   2       96.895415    
f1   1   4   0   0   0   0   3      -131.43248    
f2   2   0   0   0   0   3   4      -17.533533    
f2   2   0   0   0   1   2   3       177.44111    
f2   2   0   0   0   2   1   3       320.31778    
f2   2   0   0   0   3   0   3      -3607.5351    
f2   2   0   0   1   0   2   3      -328.40923    
f2   2   0   0   1   1   1   2       5192.8220    
f2   2   0   0   1   2   0   2      -445.66493    
f2   2   0   0   2   0   1   3       473.63867    
f2   2   0   0   2   1   0   2       2125.9488    
f2   2   0   0   3   0   0   3       4341.1315    
f2   2   0   1   0   0   2   3      -129.90805    
f2   2   0   1   0   1   1   2      -775.88205    
f2   2   0   1   0   2   0   2      -766.70200    
f2   2   0   1   1   0   1   2      -716.23179    
f2   2   0   1   2   0   0   2      -978.00870    
f2   2   0   2   0   0   1   3      -372.71173    
f2   2   0   2   0   1   0   2      -578.38734    
f2   2   0   3   0   0   0   3      -650.56586    
f2   2   1   0   0   0   2   3      -120.71622    
f2   2   1   0   0   1   1   2      -760.89140    
f2   2   1   0   0   2   0   2       341.24715    
f2   2   1   0   1   0   1   2      -286.65968    
f2   2   1   0   1   1   0   1      -936.60213    
f2   2   1   0   2   0   0   2       1946.7375    
f2   2   1   1   0   0   1   2      -231.45012    
f2   2   1   1   0   1   0   1       526.53979    
f2   2   1   1   1   0   0   1      -873.30141    
f2   2   1   2   0   0   0   2       272.95929    
f2   2   2   0   0   0   1   3      -55.889537    
f2   2   2   0   0   1   0   2      -208.38840    
f2   2   2   0   1   0   0   2      -652.96195    
f2   2   2   1   0   0   0   2      -396.25769    
f2   2   3   0   0   0   0   3       314.21327    
f3   3   0   0   0   0   2   4      -106.64714    
f3   3   0   0   0   1   1   3      -364.15380    
f3   3   0   0   0   2   0   3       430.25418    
f3   3   0   0   1   0   1   3      -950.49009    
f3   3   0   0   1   1   0   2       112.78479    
f3   3   0   0   2   0   0   3      -4275.9478    
f3   3   0   1   0   0   1   3      -55.677310    
f3   3   0   1   0   1   0   2      -551.39569    
f3   3   0   1   1   0   0   2      -130.70773    
f3   3   0   2   0   0   0   3       55.325155    
f3   3   1   0   0   0   1   3       85.874201    
f3   3   1   0   0   1   0   2       170.05977    
f3   3   1   0   1   0   0   2      -1518.8639    
f3   3   1   1   0   0   0   2      -426.39023    
f3   3   2   0   0   0   0   3       353.46112    
f4   4   0   0   0   0   1   4       110.57727    
f4   4   0   0   0   1   0   3       915.10668    
f4   4   0   0   1   0   0   3       183.65940    
f4   4   0   1   0   0   0   3       393.53702    
f4   4   1   0   0   0   0   3      -287.50913    
f5   5   0   0   0   0   0   4       2289.6309    
f0   0   0   0   0   0   6   4     -0.75964631    
f0   0   0   0   0   1   5   3      -3.1826383    
f0   0   0   0   0   2   4   3      -89.577521    
f0   0   0   0   0   3   3   3       46.026494    
f0   0   0   0   0   4   2   3       568.26967    
f0   0   0   0   0   5   1   3       179.93250    
f0   0   0   0   0   6   0   3      -251.02701    
f0   0   0   0   1   0   5   3      -1.4443357    
f0   0   0   0   1   1   4   2      -102.80513    
f0   0   0   0   1   2   3   2       65.359950    
f0   0   0   0   1   3   2   2      -348.76594    
f0   0   0   0   1   4   1   2      -124.68037    
f0   0   0   0   2   0   4   3      -40.514384    
f0   0   0   0   2   1   3   2      -5.5733618    
f0   0   0   0   2   2   2   2       2230.6057    
f0   0   0   0   2   3   1   2      -180.11217    
f0   0   0   0   2   4   0   2      -2302.0994    
f0   0   0   0   3   0   3   3       13.992920    
f0   0   0   0   3   1   2   2       1551.2524    
f0   0   0   0   3   2   1   2       5948.3079    
f0   0   0   0   3   3   0   2      -4731.2439    
f0   0   0   0   4   0   2   3       17.766876    
f0   0   0   0   4   1   1   2       11593.494    
f0   0   0   0   4   2   0   2      -1113.0806    
f0   0   0   0   5   0   1   3       5965.3150    
f0   0   0   0   5   1   0   2       6900.7763    
f0   0   0   0   6   0   0   3       26149.250    
f0   0   0   1   0   0   5   3      -2.9537080    
f0   0   0   1   0   1   4   2      -74.855547    
f0   0   0   1   0   2   3   2      -130.80856    
f0   0   0   1   0   3   2   2      -283.00484    
f0   0   0   1   0   4   1   2      -572.08478    
f0   0   0   1   0   5   0   2      -3408.3458    
f0   0   0   1   1   0   4   2      -34.908304    
f0   0   0   1   1   1   3   1      -346.99271    
f0   0   0   1   1   2   2   1      -1480.9347    
f0   0   0   1   1   3   1   1      -1866.1452    
f0   0   0   1   1   4   0   1       852.42871    
f0   0   0   1   2   0   3   2      -114.69843    
f0   0   0   1   2   1   2   1      -686.04214    
f0   0   0   1   2   2   1   1      -1712.9651    
f0   0   0   1   2   3   0   1      -612.56309    
f0   0   0   1   3   0   2   2      -572.48268    
f0   0   0   1   3   1   1   1      -665.48346    
f0   0   0   1   3   2   0   1       3132.7578    
f0   0   0   1   4   0   1   2      -249.14370    
f0   0   0   1   4   1   0   1       4433.4688    
f0   0   0   1   5   0   0   2      -648.88501    
f0   0   0   2   0   0   4   3      -5.0070872    
f0   0   0   2   0   1   3   2      -130.75261    
f0   0   0   2   0   4   0   2      -3685.1954    
f0   0   0   2   1   0   3   2      -197.89182    
f0   0   0   2   1   1   2   1      -511.77360    
f0   0   0   2   1   2   1   1       3193.3073    
f0   0   0   2   1   3   0   1      -657.42713    
f0   0   0   2   2   0   2   2      -424.34096    
f0   0   0   2   2   1   1   1       1588.1555    
f0   0   0   2   2   2   0   1      -5669.9811    
f0   0   0   2   3   0   1   2       3351.5483    
f0   0   0   2   3   1   0   1      -2955.3614    
f0   0   0   2   4   0   0   2       1129.9801    
f0   0   0   3   0   0   3   3       14.246266    
f0   0   0   3   0   1   2   2       120.76633    
f0   0   0   3   0   2   1   2      -830.79636    
f0   0   0   3   0   3   0   2      -3262.1355    
f0   0   0   3   1   0   2   2      -121.47963    
f0   0   0   3   1   1   1   1      -1464.7798    
f0   0   0   3   1   2   0   1      -762.30691    
f0   0   0   3   2   0   1   2      -901.86114    
f0   0   0   3   2   1   0   1       1128.9575    
f0   0   0   3   3   0   0   2      -1283.4870    
f0   0   0   4   0   0   2   3      -125.91762    
f0   0   0   4   1   0   1   2       1284.5688    
f0   0   0   4   1   1   0   1       1412.6462    
f0   0   0   4   2   0   0   2       1347.6167    
f0   0   0   5   0   0   1   3      -248.66887    
f0   0   0   5   0   1   0   2      -730.49279    
f0   0   0   5   1   0   0   2      -2486.6793    
f0   0   0   6   0   0   0   3       1753.7270    
f0   0   1   0   0   0   5   3      -1.1967118    
f0   0   1   0   0   1   4   2      -12.293833    
f0   0   1   0   0   2   3   2      -36.359676    
f0   0   1   0   0   3   2   2       31.353453    
f0   0   1   0   0   4   1   2      -198.78510    
f0   0   1   0   0   5   0   2      -178.25080    
f0   0   1   0   1   0   4   2      -23.245469    
f0   0   1   0   1   1   3   1      -300.16456    
f0   0   1   0   1   2   2   1      -1039.1722    
f0   0   1   0   2   0   3   2      -160.81666    
f0   0   1   0   2   1   2   1      -1410.1494    
f0   0   1   0   2   2   1   1      -3494.8395    
f0   0   1   0   2   3   0   1      -1615.0938    
f0   0   1   0   3   0   2   2      -496.75887    
f0   0   1   0   3   1   1   1       375.35121    
f0   0   1   0   3   2   0   1      -2493.8328    
f0   0   1   0   4   0   1   2      -1578.0761    
f0   0   1   0   4   1   0   1      -904.68027    
f0   0   1   0   5   0   0   2      -6254.4180    
f0   0   1   1   0   0   4   2      -6.8705397    
f0   0   1   1   0   1   3   1      -76.169996    
f0   0   1   1   0   2   2   1      -349.73544    
f0   0   1   1   0   3   1   1      -633.14259    
f0   0   1   1   0   4   0   1      -557.01029    
f0   0   1   1   1   1   2   1      -689.48829    
f0   0   1   1   1   2   1   1      -3217.8922    
f0   0   1   1   2   1   1   1      -2754.7082    
f0   0   1   1   2   2   0   1      -1278.8363    
f0   0   1   1   3   0   1   1      -2111.8693    
f0   0   1   1   3   1   0   1      -851.57863    
f0   0   1   1   4   0   0   1       1321.5346    
f0   0   1   2   0   1   2   1      -152.62792    
f0   0   1   2   0   2   1   1      -630.76671    
f0   0   1   2   1   2   0   1      -2079.7085    
f0   0   1   2   2   0   1   1      -419.10636    
f0   0   1   2   2   1   0   1      -1296.1066    
f0   0   1   3   0   0   2   2       75.323878    
f0   0   1   3   0   1   1   1       204.86450    
f0   0   1   3   1   1   0   1       370.75669    
f0   0   1   3   2   0   0   1       1694.4009    
f0   0   1   4   0   0   1   2       304.05578    
f0   0   1   5   0   0   0   2       554.47863    
f0   0   2   0   0   0   4   3      -13.546245    
f0   0   2   0   0   1   3   2       5.3982686    
f0   0   2   0   0   2   2   2      -205.42171    
f0   0   2   0   0   4   0   2       236.04589    
f0   0   2   0   1   0   3   2      -7.2793229    
f0   0   2   0   1   2   1   1      -741.41734    
f0   0   2   0   2   0   2   2      -247.37047    
f0   0   2   0   2   1   1   1      -1285.7770    
f0   0   2   0   2   2   0   1      -1004.3415    
f0   0   2   0   3   0   1   2      -1290.8151    
f0   0   2   0   3   1   0   1      -936.28121    
f0   0   2   0   4   0   0   2      -6703.1535    
f0   0   2   1   0   0   3   2      -4.6899254    
f0   0   2   1   0   1   2   1      -88.666771    
f0   0   2   1   0   2   1   1      -311.83979    
f0   0   2   1   1   1   1   1      -780.91789    
f0   0   2   1   2   0   1   1      -517.70492    
f0   0   2   1   2   1   0   1      -1291.0251    
f0   0   2   2   0   0   2   2      -19.229502    
f0   0   2   2   0   1   1   1      -121.97340    
f0   0   2   2   0   2   0   1       302.49146    
f0   0   2   2   1   0   1   1      -387.07073    
f0   0   2   2   1   1   0   1      -507.68034    
f0   0   2   3   0   0   1   2       384.23795    
f0   0   2   3   0   1   0   1       977.10965    
f0   0   2   3   1   0   0   1       2309.7020    
f0   0   2   4   0   0   0   2       193.27664    
f0   0   3   0   0   0   3   3      -13.398305    
f0   0   3   0   0   1   2   2       152.38426    
f0   0   3   0   0   3   0   2       146.70472    
f0   0   3   0   1   0   2   2       45.596312    
f0   0   3   0   1   1   1   1       1396.8223    
f0   0   3   0   1   2   0   1      -391.61141    
f0   0   3   0   2   0   1   2      -267.50625    
f0   0   3   0   2   1   0   1       224.31759    
f0   0   3   1   0   0   2   2       44.374713    
f0   0   3   1   0   2   0   1      -701.50993    
f0   0   3   1   1   0   1   1      -239.36188    
f0   0   3   1   1   1   0   1      -724.43044    
f0   0   3   1   2   0   0   1       748.30937    
f0   0   3   2   0   1   0   1      -632.71415    
f0   0   3   3   0   0   0   2       564.57377    
f0   0   4   0   0   0   2   3       265.37701    
f0   0   4   0   1   0   1   2      -80.904489    
f0   0   4   0   1   1   0   1      -316.45712    
f0   0   4   0   2   0   0   2      -2337.2256    
f0   0   4   1   0   1   0   1      -445.92784    
f0   0   4   1   1   0   0   1      -235.67662    
f0   0   4   2   0   0   0   2       179.80081    
f0   0   5   0   0   0   1   3       74.986205    
f0   0   5   0   1   0   0   2       227.58747    
f0   0   5   1   0   0   0   2       279.71227    
f0   0   6   0   0   0   0   3       2161.4004    
f1   1   0   0   0   0   5   3       3.2279172    
f1   1   0   0   0   1   4   2       50.374857    
f1   1   0   0   0   2   3   2       186.11837    
f1   1   0   0   0   3   2   2       542.13260    
f1   1   0   0   0   4   1   2      -236.10569    
f1   1   0   0   0   5   0   2      -599.57918    
f1   1   0   0   1   0   4   2       32.592505    
f1   1   0   0   1   1   3   1       413.40826    
f1   1   0   0   1   2   2   1       168.58387    
f1   1   0   0   1   3   1   1      -712.37482    
f1   1   0   0   1   4   0   1       1032.6311    
f1   1   0   0   2   0   3   2       80.834285    
f1   1   0   0   2   1   2   1      -1641.6109    
f1   1   0   0   2   2   1   1      -700.56609    
f1   1   0   0   2   3   0   1       6180.1869    
f1   1   0   0   3   0   2   2       1078.3487    
f1   1   0   0   3   1   1   1      -8360.8776    
f1   1   0   0   3   2   0   1       5038.0897    
f1   1   0   0   4   0   1   2      -4497.7329    
f1   1   0   0   4   1   0   1       1057.2739    
f1   1   0   0   5   0   0   2      -13000.360    
f1   1   0   1   0   0   4   2       35.813845    
f1   1   0   1   0   1   3   1       278.61307    
f1   1   0   1   0   2   2   1       320.91858    
f1   1   0   1   0   3   1   1      -204.23371    
f1   1   0   1   0   4   0   1       7438.6197    
f1   1   0   1   1   0   3   1       398.48737    
f1   1   0   1   1   1   2   1       1954.9052    
f1   1   0   1   1   2   1   1       3950.0921    
f1   1   0   1   1   3   0   1      -1040.9032    
f1   1   0   1   2   0   2   1       1118.1777    
f1   1   0   1   2   1   1   1       1414.8396    
f1   1   0   1   2   2   0   1       8094.5220    
f1   1   0   1   3   0   1   1      -6118.4460    
f1   1   0   1   3   1   0   1       2111.7242    
f1   1   0   1   4   0   0   1       1751.7090    
f1   1   0   2   0   0   3   2       14.290980    
f1   1   0   2   0   1   2   1       362.00509    
f1   1   0   2   0   2   1   1       1063.5170    
f1   1   0   2   0   3   0   1       8456.2649    
f1   1   0   2   1   0   2   1       591.15525    
f1   1   0   2   1   1   1   1       2157.6968    
f1   1   0   2   1   2   0   1       443.57792    
f1   1   0   2   2   0   1   1       1686.5398    
f1   1   0   2   2   1   0   1       6091.0225    
f1   1   0   2   3   0   0   1       1954.8623    
f1   1   0   3   0   0   2   2       259.63329    
f1   1   0   3   0   1   1   1       714.62963    
f1   1   0   3   0   2   0   1       1110.9326    
f1   1   0   3   1   0   1   1      -2170.8019    
f1   1   0   3   1   1   0   1      -554.75884    
f1   1   0   3   2   0   0   1      -1213.2172    
f1   1   0   4   0   0   1   2       1053.4053    
f1   1   0   4   0   1   0   1       2502.9202    
f1   1   0   4   1   0   0   1       3060.5476    
f1   1   0   5   0   0   0   2      -698.45872    
f1   1   1   0   0   0   4   2       15.726031    
f1   1   1   0   0   2   2   1       440.88758    
f1   1   1   0   0   3   1   1       598.14919    
f1   1   1   0   0   4   0   1       732.79589    
f1   1   1   0   1   1   2   1       1256.9710    
f1   1   1   0   1   2   1   1       2056.2913    
f1   1   1   0   2   0   2   1       273.83262    
f1   1   1   0   2   1   1   1       2529.2563    
f1   1   1   0   2   2   0   1       5528.7872    
f1   1   1   0   3   0   1   1       2898.4562    
f1   1   1   0   3   1   0   1       2861.6084    
f1   1   1   0   4   0   0   1       16841.642    
f1   1   1   1   0   1   2   1       392.37846    
f1   1   1   1   0   2   1   1       1391.7709    
f1   1   1   1   0   3   0   1       536.34089    
f1   1   1   1   1   0   2   1       281.55937    
f1   1   1   1   1   1   1   1       2285.8179    
f1   1   1   1   1   2   0   1       2305.0398    
f1   1   1   1   2   0   1   1       3000.1607    
f1   1   1   1   2   1   0   1       1917.5427    
f1   1   1   1   3   0   0   1       2343.6541    
f1   1   1   2   0   1   1   1       865.05282    
f1   1   1   2   0   2   0   1      -789.16399    
f1   1   1   2   1   0   1   1       2123.9875    
f1   1   1   2   1   1   0   1       3023.6410    
f1   1   1   2   2   0   0   1       1338.3223    
f1   1   1   3   0   0   1   1      -330.92737    
f1   1   1   3   0   1   0   1       707.47759    
f1   1   2   0   0   0   3   2       25.341779    
f1   1   2   0   0   2   1   1      -301.41947    
f1   1   2   0   0   3   0   1      -356.52515    
f1   1   2   0   1   0   2   1      -289.68738    
f1   1   2   0   1   1   1   1       1014.3316    
f1   1   2   0   1   2   0   1      -559.58919    
f1   1   2   0   2   0   1   1       1232.6904    
f1   1   2   0   3   0   0   1       2620.6503    
f1   1   2   1   0   0   2   1       62.668672    
f1   1   2   1   0   1   1   1       408.74301    
f1   1   2   1   0   2   0   1      -1441.5781    
f1   1   2   1   1   0   1   1       1478.1289    
f1   1   2   1   2   0   0   1       1765.9246    
f1   1   2   2   0   1   0   1      -355.07993    
f1   1   2   2   1   0   0   1      -1199.2574    
f1   1   3   0   0   0   2   2      -239.92850    
f1   1   3   0   0   2   0   1      -229.23497    
f1   1   3   0   1   0   1   1      -537.75296    
f1   1   3   0   1   1   0   1       416.40784    
f1   1   3   0   2   0   0   1       2362.2683    
f1   1   3   1   0   1   0   1       1806.7964    
f1   1   3   1   1   0   0   1       401.09814    
f1   1   3   2   0   0   0   1       756.21503    
f1   1   4   0   0   1   0   1      -268.61704    
f1   1   4   0   1   0   0   1      -755.36515    
f1   1   4   1   0   0   0   1       454.22143    
f2   2   0   0   0   0   4   3      -23.834009    
f2   2   0   0   0   1   3   2      -26.073104    
f2   2   0   0   0   2   2   2      -662.69019    
f2   2   0   0   0   3   1   2       381.03267    
f2   2   0   0   0   4   0   2      -418.39371    
f2   2   0   0   1   0   3   2       6.2138050    
f2   2   0   0   1   1   2   1      -995.99004    
f2   2   0   0   1   2   1   1      -2233.3144    
f2   2   0   0   1   3   0   1       1122.2616    
f2   2   0   0   2   0   2   2       374.65037    
f2   2   0   0   2   1   1   1      -2626.0165    
f2   2   0   0   2   2   0   1      -8451.1031    
f2   2   0   0   3   0   1   2      -552.64908    
f2   2   0   0   3   1   0   1      -3656.8420    
f2   2   0   0   4   0   0   2      -16267.917    
f2   2   0   1   0   0   3   2      -35.301998    
f2   2   0   1   0   1   2   1      -528.85418    
f2   2   0   1   0   3   0   1      -5338.0608    
f2   2   0   1   1   0   2   1      -316.23908    
f2   2   0   1   1   1   1   1      -1813.4043    
f2   2   0   1   1   2   0   1      -3382.8599    
f2   2   0   1   2   0   1   1      -1147.4501    
f2   2   0   1   2   1   0   1      -10615.846    
f2   2   0   1   3   0   0   1      -4723.5867    
f2   2   0   2   0   0   2   2      -154.73991    
f2   2   0   2   0   1   1   1      -1205.8888    
f2   2   0   2   0   2   0   1      -1979.8071    
f2   2   0   2   1   0   1   1      -230.80645    
f2   2   0   2   1   1   0   1       349.51521    
f2   2   0   3   0   0   1   2      -795.24780    
f2   2   0   3   0   1   0   1      -661.51503    
f2   2   0   3   1   0   0   1      -912.38163    
f2   2   0   4   0   0   0   2      -578.66241    
f2   2   1   0   0   0   3   2      -30.358775    
f2   2   1   0   0   2   1   1      -223.30186    
f2   2   1   0   1   0   2   1       101.79885    
f2   2   1   0   1   1   1   1      -4413.5209    
f2   2   1   0   1   2   0   1      -1303.5737    
f2   2   1   0   2   0   1   1      -1010.7815    
f2   2   1   0   2   1   0   1      -3039.0613    
f2   2   1   0   3   0   0   1      -2602.0391    
f2   2   1   1   0   0   2   1      -29.865280    
f2   2   1   1   0   1   1   1      -385.77539    
f2   2   1   1   0   2   0   1      -1313.3399    
f2   2   1   1   1   0   1   1      -1174.6516    
f2   2   1   1   1   1   0   1      -1123.0278    
f2   2   1   1   2   0   0   1      -2882.2332    
f2   2   1   2   0   1   0   1       2552.9459    
f2   2   1   3   0   0   0   1      -1723.3325    
f2   2   2   0   0   0   2   2      -35.264900    
f2   2   2   0   0   2   0   1       812.61481    
f2   2   2   0   1   0   1   1       713.84919    
f2   2   2   0   2   0   0   1       4981.3639    
f2   2   2   1   1   0   0   1      -2334.5867    
f2   2   3   0   0   0   1   2       87.498753    
f2   2   3   0   1   0   0   1      -1337.0583    
f2   2   3   1   0   0   0   1      -687.89369    
f2   2   4   0   0   0   0   2       376.64353    
f3   3   0   0   0   0   3   3      -16.457972    
f3   3   0   0   0   1   2   2       159.85151    
f3   3   0   0   0   2   1   2      -67.084279    
f3   3   0   0   0   3   0   2       168.51816    
f3   3   0   0   1   0   2   2       159.85342    
f3   3   0   0   1   1   1   1       4767.8849    
f3   3   0   0   1   2   0   1      -1580.8246    
f3   3   0   0   2   0   1   2       1637.6983    
f3   3   0   0   2   1   0   1       3555.4601    
f3   3   0   0   3   0   0   2       6042.4288    
f3   3   0   1   0   0   2   2       85.258745    
f3   3   0   1   0   1   1   1       386.33911    
f3   3   0   1   1   0   1   1       597.58399    
f3   3   0   1   1   1   0   1       2079.4876    
f3   3   0   1   2   0   0   1       1047.3049    
f3   3   0   2   0   0   1   2       262.63427    
f3   3   0   2   0   1   0   1       1270.8699    
f3   3   0   2   1   0   0   1      -862.07543    
f3   3   1   0   0   0   2   2       47.478097    
f3   3   1   0   0   1   1   1      -383.53800    
f3   3   1   0   0   2   0   1      -1121.0447    
f3   3   1   0   1   0   1   1       593.51560    
f3   3   1   0   1   1   0   1       298.35951    
f3   3   1   0   2   0   0   1       1924.0487    
f3   3   1   1   0   0   1   1       353.18606    
f3   3   1   1   1   0   0   1       584.67410    
f3   3   1   2   0   0   0   1      -264.83517    
f3   3   2   0   0   0   1   2      -463.59707    
f3   3   2   0   0   1   0   1       460.16325    
f3   3   2   0   1   0   0   1       262.15842    
f3   3   2   1   0   0   0   1       427.94242    
f3   3   3   0   0   0   0   2       731.83159    
f4   4   0   0   0   0   2   3      -43.862705    
f4   4   0   0   0   1   1   2      -200.34967    
f4   4   0   0   0   2   0   2       1025.8337    
f4   4   0   0   1   0   1   2      -955.31111    
f4   4   0   0   1   1   0   1       1863.2980    
f4   4   0   0   2   0   0   2       122.92757    
f4   4   0   1   0   1   0   1       983.59319    
f4   4   0   2   0   0   0   2      -137.00827    
f4   4   1   0   0   0   1   2       95.497698    
f4   4   1   0   0   1   0   1       851.28814    
f4   4   1   0   1   0   0   1       555.07231    
f4   4   1   1   0   0   0   1      -1169.4086    
f4   4   2   0   0   0   0   2       408.63375    
f5   5   0   0   0   0   1   3       42.319009    
f5   5   0   0   0   1   0   2      -621.20185    
f5   5   0   0   1   0   0   2      -2366.9252    
f5   5   0   1   0   0   0   2      -170.23712    
f6   6   0   0   0   0   0   3       2454.6832    
f0   0   0   0   0   0   7   3     -0.20022794E-01
f0   0   0   0   0   1   6   2      -2.2547417    
f0   0   0   0   0   2   5   2      -7.5404453    
f0   0   0   0   0   3   4   2      -43.983386    
f0   0   0   0   0   4   3   2      -30.529499    
f0   0   0   0   0   5   2   2      -2375.6410    
f0   0   0   0   0   6   1   2       315.46376    
f0   0   0   0   0   7   0   2       286.21996    
f0   0   0   0   1   0   6   2      -2.2014675    
f0   0   0   0   1   1   5   1      -34.825258    
f0   0   0   0   1   2   4   1      -205.58505    
f0   0   0   0   1   3   3   1      -722.75239    
f0   0   0   0   1   4   2   1       1423.7929    
f0   0   0   0   1   5   1   1      -387.76945    
f0   0   0   0   1   6   0   1       1413.9743    
f0   0   0   0   2   0   5   2      -13.255135    
f0   0   0   0   2   1   4   1      -175.37266    
f0   0   0   0   2   2   3   1      -363.37832    
f0   0   0   0   2   3   2   1      -90.253889    
f0   0   0   0   2   4   1   1       3317.9074    
f0   0   0   0   2   5   0   1       1701.5812    
f0   0   0   0   3   0   4   2       19.375413    
f0   0   0   0   3   1   3   1       259.76014    
f0   0   0   0   3   2   2   1       1222.7074    
f0   0   0   0   3   3   1   1       1625.7028    
f0   0   0   0   3   4   0   1      -518.27771    
f0   0   0   0   4   0   3   2       306.15798    
f0   0   0   0   4   1   2   1       2126.7423    
f0   0   0   0   4   2   1   1       10392.614    
f0   0   0   0   4   3   0   1       1163.5208    
f0   0   0   0   5   0   2   2      -1399.5985    
f0   0   0   0   5   1   1   1      -12057.989    
f0   0   0   0   5   2   0   1       14523.310    
f0   0   0   0   6   0   1   2      -182.67999    
f0   0   0   0   6   1   0   1       11583.938    
f0   0   0   0   7   0   0   2       2678.7576    
f0   0   0   1   0   0   6   2     -0.64743602    
f0   0   0   1   0   1   5   1      -19.461241    
f0   0   0   1   0   2   4   1      -173.39967    
f0   0   0   1   0   3   3   1      -167.99377    
f0   0   0   1   0   4   2   1       169.42840    
f0   0   0   1   0   5   1   1       581.36245    
f0   0   0   1   0   6   0   1       567.12145    
f0   0   0   1   1   1   4   1      -316.12584    
f0   0   0   1   1   2   3   1      -1005.1018    
f0   0   0   1   1   3   2   1      -1949.0516    
f0   0   0   1   1   4   1   1      -2970.7957    
f0   0   0   1   1   5   0   1      -123.97944    
f0   0   0   1   2   0   4   1      -135.60333    
f0   0   0   1   2   1   3   1      -791.54421    
f0   0   0   1   2   2   2   1      -2624.1177    
f0   0   0   1   2   3   1   1      -8121.2371    
f0   0   0   1   2   4   0   1      -5668.9075    
f0   0   0   1   3   0   3   1      -260.61416    
f0   0   0   1   3   1   2   1      -1909.1132    
f0   0   0   1   3   2   1   1      -2484.2626    
f0   0   0   1   3   3   0   1      -5952.5990    
f0   0   0   1   4   0   2   1      -557.50196    
f0   0   0   1   4   1   1   1      -2615.2183    
f0   0   0   1   4   2   0   1      -7723.2108    
f0   0   0   1   5   0   1   1       9597.9509    
f0   0   0   1   5   1   0   1      -2103.9275    
f0   0   0   1   6   0   0   1      -5844.2778    
f0   0   0   2   0   0   5   2      -5.9905201    
f0   0   0   2   0   1   4   1      -99.224923    
f0   0   0   2   0   2   3   1      -434.57288    
f0   0   0   2   0   3   2   1      -1346.1097    
f0   0   0   2   0   4   1   1      -655.11275    
f0   0   0   2   0   5   0   1      -4079.4468    
f0   0   0   2   1   1   3   1      -613.09916    
f0   0   0   2   1   2   2   1      -4398.2353    
f0   0   0   2   1   3   1   1      -12778.429    
f0   0   0   2   1   4   0   1       2524.9692    
f0   0   0   2   2   0   3   1      -427.86909    
f0   0   0   2   2   1   2   1      -3922.3795    
f0   0   0   2   2   2   1   1      -3136.2523    
f0   0   0   2   2   3   0   1      -7056.6258    
f0   0   0   2   3   0   2   1      -1980.9616    
f0   0   0   2   3   1   1   1      -10057.517    
f0   0   0   2   3   2   0   1      -1389.3127    
f0   0   0   2   4   0   1   1      -1967.8158    
f0   0   0   2   4   1   0   1       2771.8012    
f0   0   0   2   5   0   0   1       300.25137    
f0   0   0   3   0   0   4   2       6.8029901    
f0   0   0   3   0   1   3   1      -209.32927    
f0   0   0   3   0   2   2   1      -730.23655    
f0   0   0   3   0   3   1   1      -264.27296    
f0   0   0   3   0   4   0   1      -4726.8204    
f0   0   0   3   1   0   3   1      -355.25667    
f0   0   0   3   1   1   2   1      -880.01029    
f0   0   0   3   1   2   1   1      -2262.8667    
f0   0   0   3   1   3   0   1      -9138.9532    
f0   0   0   3   2   0   2   1      -124.38059    
f0   0   0   3   2   1   1   1      -4798.3143    
f0   0   0   3   2   2   0   1      -16091.523    
f0   0   0   3   3   0   1   1       4223.5679    
f0   0   0   3   3   1   0   1      -10397.821    
f0   0   0   3   4   0   0   1      -10139.038    
f0   0   0   4   0   0   3   2       37.221033    
f0   0   0   4   0   1   2   1      -216.06099    
f0   0   0   4   0   2   1   1      -1988.7762    
f0   0   0   4   0   3   0   1      -1814.6503    
f0   0   0   4   1   0   2   1      -552.88239    
f0   0   0   4   1   1   1   1      -5045.9557    
f0   0   0   4   1   2   0   1      -1899.3402    
f0   0   0   4   2   0   1   1      -2605.6496    
f0   0   0   4   2   1   0   1      -627.60465    
f0   0   0   4   3   0   0   1       2375.7123    
f0   0   0   5   0   0   2   2      -23.827430    
f0   0   0   5   0   2   0   1      -982.75931    
f0   0   0   5   1   0   1   1       3525.1409    
f0   0   0   5   1   1   0   1      -2551.2040    
f0   0   0   5   2   0   0   1      -5806.4918    
f0   0   0   6   0   0   1   2      -391.80805    
f0   0   0   6   0   1   0   1       1012.4101    
f0   0   0   6   1   0   0   1       1433.4349    
f0   0   0   7   0   0   0   2      -286.09628    
f0   0   1   0   0   4   2   1      -193.98530    
f0   0   1   0   0   5   1   1      -119.76617    
f0   0   1   0   0   6   0   1      -235.57048    
f0   0   1   0   1   1   4   1      -82.574181    
f0   0   1   0   1   2   3   1      -284.98709    
f0   0   1   0   1   3   2   1      -364.01238    
f0   0   1   0   1   5   0   1       418.80943    
f0   0   1   0   2   0   4   1      -50.930949    
f0   0   1   0   2   1   3   1      -596.87587    
f0   0   1   0   2   2   2   1      -1369.5173    
f0   0   1   0   2   3   1   1      -1389.6993    
f0   0   1   0   2   4   0   1       1555.6385    
f0   0   1   0   3   0   3   1      -293.36794    
f0   0   1   0   3   1   2   1      -1471.3589    
f0   0   1   0   3   2   1   1      -3739.8381    
f0   0   1   0   3   3   0   1      -2234.6430    
f0   0   1   0   4   0   2   1      -1650.8391    
f0   0   1   0   4   1   1   1      -2014.0899    
f0   0   1   0   4   2   0   1       1376.0919    
f0   0   1   0   5   0   1   1      -1438.7965    
f0   0   1   0   5   1   0   1      -1716.2073    
f0   0   1   0   6   0   0   1      -4641.7460    
f0   0   1   1   0   3   2   1      -333.00640    
f0   0   1   1   0   4   1   1      -1300.1120    
f0   0   1   1   0   5   0   1      -328.24278    
f0   0   1   1   1   0   4   1      -63.097083    
f0   0   1   1   1   1   3   1      -447.41596    
f0   0   1   1   1   2   2   1      -1436.6673    
f0   0   1   1   1   3   1   1      -691.56000    
f0   0   1   1   1   4   0   1      -454.46203    
f0   0   1   1   2   0   3   1      -254.13183    
f0   0   1   1   2   1   2   1      -1135.6656    
f0   0   1   1   2   2   1   1      -3582.9624    
f0   0   1   1   2   3   0   1      -2954.8803    
f0   0   1   1   3   0   2   1      -292.09898    
f0   0   1   1   3   2   0   1       908.83683    
f0   0   1   1   4   1   0   1      -867.32217    
f0   0   1   1   5   0   0   1       781.14635    
f0   0   1   2   0   2   2   1      -395.03778    
f0   0   1   2   0   3   1   1      -1479.2566    
f0   0   1   2   0   4   0   1      -1482.5380    
f0   0   1   2   1   1   2   1      -715.24432    
f0   0   1   2   1   2   1   1      -3717.3251    
f0   0   1   2   1   3   0   1      -1536.1675    
f0   0   1   2   2   0   2   1      -415.56152    
f0   0   1   2   2   1   1   1      -760.00997    
f0   0   1   2   2   2   0   1       2994.7994    
f0   0   1   2   3   0   1   1      -1501.0826    
f0   0   1   2   3   1   0   1       1819.3297    
f0   0   1   2   4   0   0   1       5415.9141    
f0   0   1   3   0   1   2   1      -298.05394    
f0   0   1   3   0   2   1   1      -2222.8186    
f0   0   1   3   0   3   0   1      -566.89162    
f0   0   1   3   1   1   1   1      -561.55721    
f0   0   1   3   1   2   0   1      -2991.1166    
f0   0   1   3   2   0   1   1       585.79977    
f0   0   1   3   2   1   0   1      -461.84015    
f0   0   1   3   3   0   0   1      -1999.2872    
f0   0   1   4   1   0   1   1      -665.85215    
f0   0   1   4   1   1   0   1      -500.49151    
f0   0   1   4   2   0   0   1       3295.8224    
f0   0   1   5   0   0   1   1       467.03834    
f0   0   1   5   1   0   0   1      -1249.7692    
f0   0   1   6   0   0   0   1       315.01416    
f0   0   2   0   0   0   5   2     -0.60947170    
f0   0   2   0   0   3   2   1       232.01272    
f0   0   2   0   0   5   0   1       400.26812    
f0   0   2   0   1   1   3   1      -144.46086    
f0   0   2   0   1   2   2   2       181.91357    
f0   0   2   0   1   3   1   1       1038.8704    
f0   0   2   0   1   4   0   1      -311.06256    
f0   0   2   0   2   1   2   1      -239.23928    
f0   0   2   0   2   2   1   1      -912.30308    
f0   0   2   0   2   3   0   1      -1507.4893    
f0   0   2   0   3   0   2   1      -346.86043    
f0   0   2   0   3   1   1   1       3455.9326    
f0   0   2   0   3   2   0   1      -2570.7191    
f0   0   2   0   4   0   1   1      -1410.5467    
f0   0   2   0   4   1   0   1      -590.37994    
f0   0   2   0   5   0   0   1      -3856.0909    
f0   0   2   1   0   2   2   1      -64.406804    
f0   0   2   1   0   4   0   1      -744.27530    
f0   0   2   1   1   2   1   1      -1133.4507    
f0   0   2   1   1   3   0   1       1218.1548    
f0   0   2   1   2   0   2   1      -166.56974    
f0   0   2   1   2   1   1   1      -356.66401    
f0   0   2   1   2   2   0   1       4709.1585    
f0   0   2   1   3   0   1   1      -1970.7810    
f0   0   2   1   3   1   0   1       1638.9159    
f0   0   2   1   4   0   0   1       1378.9536    
f0   0   2   2   0   3   0   1      -706.35091    
f0   0   2   2   1   1   1   1       1617.1225    
f0   0   2   2   2   0   1   1       1541.7515    
f0   0   2   2   2   1   0   1       1314.9857    
f0   0   2   2   3   0   0   1       1369.6115    
f0   0   2   3   1   0   1   1      -762.41419    
f0   0   2   3   1   1   0   1       1533.3983    
f0   0   2   3   2   0   0   1       2456.5410    
f0   0   2   5   0   0   0   1      -1295.7356    
f0   0   3   0   0   0   4   2      -12.521256    
f0   0   3   0   0   2   2   1      -315.54279    
f0   0   3   0   0   3   1   1       94.681737    
f0   0   3   0   1   0   3   1       51.182675    
f0   0   3   0   1   2   1   1       361.91888    
f0   0   3   0   1   3   0   1       546.51852    
f0   0   3   0   2   0   2   1       181.37749    
f0   0   3   0   2   1   1   1      -519.80237    
f0   0   3   0   2   2   0   1       784.42588    
f0   0   3   0   3   0   1   1      -1184.8834    
f0   0   3   0   3   1   0   1       2060.0565    
f0   0   3   0   4   0   0   1      -5988.2058    
f0   0   3   1   0   2   1   1       692.68130    
f0   0   3   1   0   3   0   1       909.37504    
f0   0   3   1   1   0   2   1       183.36899    
f0   0   3   1   1   1   1   1       801.82716    
f0   0   3   1   1   2   0   1       1486.0100    
f0   0   3   1   2   0   1   1       648.06335    
f0   0   3   1   2   1   0   1       474.66091    
f0   0   3   1   3   0   0   1       642.05059    
f0   0   3   2   0   1   1   1       424.82860    
f0   0   3   2   0   2   0   1       863.00046    
f0   0   3   2   1   0   1   1      -710.35436    
f0   0   3   2   1   1   0   1       4095.9794    
f0   0   3   2   2   0   0   1       3275.0455    
f0   0   3   3   0   1   0   1       1926.7890    
f0   0   3   3   1   0   0   1      -578.58299    
f0   0   3   4   0   0   0   1      -385.02816    
f0   0   4   0   0   1   2   1       227.18457    
f0   0   4   0   0   2   1   2       82.711597    
f0   0   4   0   0   3   0   1      -496.48995    
f0   0   4   0   1   1   1   1       1651.6014    
f0   0   4   0   1   2   0   1      -403.51566    
f0   0   4   0   2   0   1   1       200.87268    
f0   0   4   0   2   1   0   1       522.01879    
f0   0   4   1   0   0   2   1       78.630876    
f0   0   4   1   0   2   0   1       566.52857    
f0   0   4   1   1   0   1   1      -310.53369    
f0   0   4   1   1   1   0   1       579.33688    
f0   0   4   1   2   0   0   1       837.75917    
f0   0   4   2   0   0   1   1       255.23863    
f0   0   4   2   0   1   0   1       818.53210    
f0   0   4   2   1   0   0   1      -530.11760    
f0   0   4   3   0   0   0   1      -528.63263    
f0   0   5   0   0   0   2   2       544.38826    
f0   0   5   0   0   2   0   1      -117.29755    
f0   0   5   0   1   1   0   1       815.73747    
f0   0   5   0   2   0   0   1      -2508.1849    
f0   0   5   1   1   0   0   1      -134.82443    
f0   0   5   2   0   0   0   1       348.87400    
f0   0   6   0   0   0   1   2       314.20294    
f0   0   6   1   0   0   0   1       162.15385    
f0   0   7   0   0   0   0   2       1425.8936    
f1   1   0   0   0   0   6   2       1.2404096    
f1   1   0   0   0   1   5   1       12.633950    
f1   1   0   0   0   2   4   1       161.35656    
f1   1   0   0   0   4   2   1      -678.83868    
f1   1   0   0   0   5   1   1      -721.13991    
f1   1   0   0   0   6   0   1      -5829.6181    
f1   1   0   0   1   0   5   1       20.553981    
f1   1   0   0   1   1   4   1       211.34833    
f1   1   0   0   1   2   3   1       682.50838    
f1   1   0   0   1   3   2   1       1241.2554    
f1   1   0   0   1   4   1   1       4769.4311    
f1   1   0   0   1   5   0   1      -963.40074    
f1   1   0   0   2   1   3   1       219.72553    
f1   1   0   0   2   2   2   1      -401.11895    
f1   1   0   0   2   3   1   1      -3432.9814    
f1   1   0   0   2   4   0   1      -5476.7942    
f1   1   0   0   3   0   3   1      -136.48064    
f1   1   0   0   3   2   1   1      -623.29150    
f1   1   0   0   3   3   0   1       1471.2673    
f1   1   0   0   4   0   2   1      -727.14067    
f1   1   0   0   4   1   1   1      -12904.997    
f1   1   0   0   4   2   0   1      -10406.369    
f1   1   0   0   5   0   1   1      -2941.7230    
f1   1   0   0   5   1   0   1      -16672.474    
f1   1   0   0   6   0   0   1      -26843.038    
f1   1   0   1   0   1   4   1       173.23219    
f1   1   0   1   0   2   3   1       662.03315    
f1   1   0   1   0   3   2   1       2031.9738    
f1   1   0   1   0   4   1   1      -972.68062    
f1   1   0   1   0   5   0   1       1438.6184    
f1   1   0   1   1   0   4   1       118.51711    
f1   1   0   1   1   1   3   1       1549.3269    
f1   1   0   1   1   2   2   1       5008.2278    
f1   1   0   1   1   3   1   1       12991.526    
f1   1   0   1   1   4   0   1       494.93027    
f1   1   0   1   2   0   3   1       664.10142    
f1   1   0   1   2   1   2   1       4526.9113    
f1   1   0   1   2   2   1   1       5578.1848    
f1   1   0   1   2   3   0   1       19170.184    
f1   1   0   1   3   0   2   1       3316.6120    
f1   1   0   1   3   1   1   1       10150.268    
f1   1   0   1   3   2   0   1       4468.8461    
f1   1   0   1   4   0   1   1       3030.1494    
f1   1   0   1   4   1   0   1       9747.1715    
f1   1   0   1   5   0   0   1      -1474.5385    
f1   1   0   2   0   1   3   1       557.67327    
f1   1   0   2   0   2   2   1       2050.5697    
f1   1   0   2   0   3   1   1       1023.9509    
f1   1   0   2   0   4   0   1       11155.782    
f1   1   0   2   1   0   3   1       583.74151    
f1   1   0   2   1   1   2   1       5021.7078    
f1   1   0   2   1   2   1   1       18142.950    
f1   1   0   2   1   3   0   1       8435.8946    
f1   1   0   2   2   0   2   1       2070.9617    
f1   1   0   2   2   1   1   1       7196.9440    
f1   1   0   2   2   2   0   1       19976.049    
f1   1   0   2   3   0   1   1      -5797.2687    
f1   1   0   2   3   1   0   1       3740.7344    
f1   1   0   2   4   0   0   1       12886.317    
f1   1   0   3   0   1   2   1       1169.4342    
f1   1   0   3   0   2   1   1       3104.0327    
f1   1   0   3   0   3   0   1       7391.2344    
f1   1   0   3   1   0   2   1       1992.6349    
f1   1   0   3   1   1   1   1       11832.971    
f1   1   0   3   1   2   0   1       4150.7178    
f1   1   0   3   2   0   1   1       4151.9695    
f1   1   0   3   2   1   0   1       11054.112    
f1   1   0   3   3   0   0   1      -1455.4293    
f1   1   0   4   0   0   2   1       244.02875    
f1   1   0   4   0   1   1   1       287.86979    
f1   1   0   4   0   2   0   1       2566.2671    
f1   1   0   4   1   0   1   1      -5162.4455    
f1   1   0   4   1   1   0   1       3351.7535    
f1   1   0   4   2   0   0   1       9083.6570    
f1   1   0   5   0   0   1   1       1233.5671    
f1   1   0   5   0   1   0   1       1551.7053    
f1   1   0   5   1   0   0   1      -1761.4472    
f1   1   0   6   0   0   0   1       2366.7575    
f1   1   1   0   0   3   2   1      -396.08341    
f1   1   1   0   0   4   1   1       495.27158    
f1   1   1   0   0   5   0   1      -453.01774    
f1   1   1   0   1   1   3   1       605.61746    
f1   1   1   0   1   2   2   1       1265.5966    
f1   1   1   0   1   3   1   1      -1883.0865    
f1   1   1   0   1   4   0   1       1586.8664    
f1   1   1   0   2   0   3   1       429.74795    
f1   1   1   0   2   1   2   1       2821.2493    
f1   1   1   0   2   2   1   1       5941.5151    
f1   1   1   0   2   3   0   1      -1372.0986    
f1   1   1   0   3   0   2   1       356.07235    
f1   1   1   0   3   1   1   1       1618.5042    
f1   1   1   0   3   2   0   1       6656.1989    
f1   1   1   0   4   0   1   1       4592.9648    
f1   1   1   0   4   1   0   1      -1108.3761    
f1   1   1   0   5   0   0   1       12843.261    
f1   1   1   1   0   1   3   1       210.56069    
f1   1   1   1   0   2   2   1       347.86903    
f1   1   1   1   0   3   1   1       2100.1909    
f1   1   1   1   0   4   0   1       938.12708    
f1   1   1   1   1   0   3   1       286.01240    
f1   1   1   1   1   1   2   1       1407.2544    
f1   1   1   1   1   2   1   1       2850.8853    
f1   1   1   1   2   0   2   1       101.04468    
f1   1   1   1   2   1   1   1       3047.2265    
f1   1   1   1   2   2   0   1      -1110.2131    
f1   1   1   1   3   0   1   1       5631.6549    
f1   1   1   1   3   1   0   1      -4454.6462    
f1   1   1   1   4   0   0   1      -6073.1229    
f1   1   1   2   0   1   2   1       865.08282    
f1   1   1   2   0   2   1   1       2312.5180    
f1   1   1   2   0   3   0   1       2082.5778    
f1   1   1   2   1   0   2   1       666.60157    
f1   1   1   2   1   1   1   1       2575.6985    
f1   1   1   2   2   0   1   1       1618.3573    
f1   1   1   2   2   1   0   1       2035.0382    
f1   1   1   2   3   0   0   1      -2718.8154    
f1   1   1   3   0   0   2   1       337.08858    
f1   1   1   3   0   1   1   1       1736.9641    
f1   1   1   3   0   2   0   1      -2575.5226    
f1   1   1   3   1   0   1   1       1325.6873    
f1   1   1   3   1   1   0   1       2617.3480    
f1   1   1   3   2   0   0   1      -629.02249    
f1   1   1   4   0   1   0   1       1439.1020    
f1   1   1   5   0   0   0   1       914.41592    
f1   1   2   0   0   4   0   1       775.51065    
f1   1   2   0   1   0   3   1       112.85131    
f1   1   2   0   1   1   2   1      -393.35405    
f1   1   2   0   1   2   1   1      -2788.0190    
f1   1   2   0   1   3   0   1      -826.89380    
f1   1   2   0   2   1   1   1       1412.2360    
f1   1   2   0   2   2   0   1       3883.0966    
f1   1   2   0   3   0   1   1       1187.6681    
f1   1   2   0   3   1   0   1       1601.8558    
f1   1   2   0   4   0   0   1       8181.2004    
f1   1   2   1   0   2   1   1      -803.39409    
f1   1   2   1   0   3   0   1       1783.6161    
f1   1   2   1   1   0   2   1      -249.75185    
f1   1   2   1   1   2   0   1      -1532.8542    
f1   1   2   1   2   1   0   1      -4152.3735    
f1   1   2   1   3   0   0   1      -4150.5073    
f1   1   2   2   0   0   2   1       176.21911    
f1   1   2   2   0   1   1   1       473.55991    
f1   1   2   2   0   2   0   1      -2339.6886    
f1   1   2   2   1   0   1   1       811.01916    
f1   1   2   2   1   1   0   1      -1225.8992    
f1   1   2   3   0   1   0   2       1483.6916    
f1   1   2   3   1   0   0   1      -5989.9391    
f1   1   2   4   0   0   0   1       1661.6354    
f1   1   3   0   0   2   1   1      -667.20314    
f1   1   3   0   1   0   2   1      -622.90163    
f1   1   3   0   1   2   0   1      -1831.4807    
f1   1   3   0   2   1   0   1      -3212.4610    
f1   1   3   0   3   0   0   1      -2968.6269    
f1   1   3   1   0   1   1   1      -439.77417    
f1   1   3   1   0   2   0   1      -2732.1242    
f1   1   3   1   1   0   1   1       1301.9581    
f1   1   3   1   1   1   0   1      -1191.8826    
f1   1   3   1   2   0   0   1      -1951.8578    
f1   1   4   0   0   0   2   1      -238.16096    
f1   1   4   0   1   0   1   1      -860.71612    
f1   1   4   0   1   1   0   1      -739.00856    
f1   1   4   0   2   0   0   1       2601.2058    
f1   1   4   1   0   0   1   1      -372.21078    
f1   1   4   1   0   1   0   1      -703.89653    
f1   1   4   2   0   0   0   1      -491.99352    
f1   1   5   0   0   0   1   1      -196.61173    
f1   1   5   0   1   0   0   1      -2334.8233    
f1   1   6   0   0   0   0   1      -1499.4727    
f2   2   0   0   0   0   5   2     -0.69018859    
f2   2   0   0   0   1   4   1      -61.402407    
f2   2   0   0   0   3   2   1      -338.80845    
f2   2   0   0   0   4   1   1       160.79517    
f2   2   0   0   0   5   0   1       3440.9202    
f2   2   0   0   1   1   3   1      -422.89756    
f2   2   0   0   1   2   2   1      -275.96887    
f2   2   0   0   1   3   1   1      -8004.8674    
f2   2   0   0   1   4   0   1       549.08104    
f2   2   0   0   2   1   2   1      -1229.3749    
f2   2   0   0   2   2   1   1      -1177.7151    
f2   2   0   0   2   3   0   1       1930.8957    
f2   2   0   0   3   0   2   2      -116.20182    
f2   2   0   0   3   1   1   1       11377.449    
f2   2   0   0   3   2   0   1      -5635.3851    
f2   2   0   0   4   0   1   1       1351.3871    
f2   2   0   0   5   0   0   1       1856.6643    
f2   2   0   1   0   1   3   1      -301.49208    
f2   2   0   1   0   2   2   1      -1543.1777    
f2   2   0   1   0   3   1   1       727.59646    
f2   2   0   1   0   4   0   1      -1132.5778    
f2   2   0   1   1   0   3   1      -277.91430    
f2   2   0   1   1   1   2   1      -3655.1573    
f2   2   0   1   1   2   1   1      -12321.886    
f2   2   0   1   1   3   0   1       528.79753    
f2   2   0   1   2   0   2   1      -1759.8828    
f2   2   0   1   2   1   1   1      -1988.4534    
f2   2   0   1   2   2   0   1      -8272.1914    
f2   2   0   1   3   0   1   1      -2935.3222    
f2   2   0   1   3   1   0   1      -993.20466    
f2   2   0   1   4   0   0   1      -4627.0819    
f2   2   0   2   0   1   2   1      -999.52433    
f2   2   0   2   0   2   1   1      -473.34876    
f2   2   0   2   0   3   0   1      -5398.2119    
f2   2   0   2   1   0   2   1      -1449.0425    
f2   2   0   2   1   1   1   1      -6996.8893    
f2   2   0   2   1   2   0   1      -6280.7367    
f2   2   0   2   2   0   1   1      -4813.7807    
f2   2   0   2   2   1   0   1      -19651.586    
f2   2   0   2   3   0   0   1      -936.68856    
f2   2   0   3   0   0   2   1       91.860789    
f2   2   0   3   0   1   1   1      -1001.4092    
f2   2   0   3   0   2   0   1      -3752.9720    
f2   2   0   3   1   1   0   1       4838.3497    
f2   2   0   3   2   0   0   1      -2568.5417    
f2   2   0   4   0   0   1   1      -1131.6048    
f2   2   0   4   0   1   0   1      -3639.0271    
f2   2   0   4   1   0   0   1       2389.3534    
f2   2   0   5   0   0   0   1      -4118.8071    
f2   2   1   0   0   3   1   1      -278.22504    
f2   2   1   0   0   4   0   1       410.69784    
f2   2   1   0   1   1   2   1      -500.11994    
f2   2   1   0   1   2   1   1       3416.5149    
f2   2   1   0   1   3   0   1       704.08679    
f2   2   1   0   2   1   1   1      -3915.4090    
f2   2   1   0   2   2   0   1      -3499.8810    
f2   2   1   0   3   0   1   1      -1539.4451    
f2   2   1   0   3   1   0   1      -2316.8529    
f2   2   1   0   4   0   0   1       1022.0511    
f2   2   1   1   0   2   1   1      -610.28254    
f2   2   1   1   1   1   1   1      -374.82972    
f2   2   1   1   1   2   0   1      -3957.4448    
f2   2   1   1   2   0   1   1      -2149.9331    
f2   2   1   1   2   1   0   1       5457.7707    
f2   2   1   1   3   0   0   1       4591.2582    
f2   2   1   2   0   1   1   1       588.59273    
f2   2   1   2   0   2   0   1      -3422.7847    
f2   2   1   2   1   0   1   1       472.47644    
f2   2   1   2   2   0   0   2      -953.80865    
f2   2   1   3   0   1   0   1       1167.6705    
f2   2   1   4   0   0   0   1      -1338.3283    
f2   2   2   0   0   2   1   1       725.06777    
f2   2   2   0   0   3   0   1      -1488.6101    
f2   2   2   0   1   0   2   1      -228.65164    
f2   2   2   0   1   1   1   1      -1045.5670    
f2   2   2   0   1   2   0   1       4018.7203    
f2   2   2   0   3   0   0   1      -3208.6167    
f2   2   2   1   1   1   0   1       1353.1519    
f2   2   2   1   2   0   0   1       3948.7158    
f2   2   2   2   0   1   0   1       2245.8359    
f2   2   3   0   0   2   0   1       790.73635    
f2   2   3   0   1   1   0   1       2288.9440    
f2   2   3   0   2   0   0   1       3367.7185    
f2   2   3   1   0   1   0   1      -591.40658    
f2   2   3   1   1   0   0   1      -1770.8980    
f2   2   3   2   0   0   0   1      -571.09569    
f2   2   4   0   0   0   1   1      -122.96479    
f2   2   4   0   0   1   0   1      -375.37943    
f2   2   4   0   1   0   0   1       303.73496    
f2   2   5   0   0   0   0   1       635.28313    
f3   3   0   0   0   0   4   2      -4.1383866    
f3   3   0   0   0   2   2   1       90.082847    
f3   3   0   0   0   4   0   1      -575.08521    
f3   3   0   0   1   1   2   1      -326.96903    
f3   3   0   0   1   2   1   1       3027.5966    
f3   3   0   0   1   3   0   1      -956.57551    
f3   3   0   0   2   0   2   1      -187.02657    
f3   3   0   0   2   1   1   1       1656.7300    
f3   3   0   0   2   2   0   1       3065.4967    
f3   3   0   0   3   0   1   1      -1096.6338    
f3   3   0   0   3   1   0   1       3408.6019    
f3   3   0   0   4   0   0   1       4362.9365    
f3   3   0   1   0   2   1   1      -323.72740    
f3   3   0   1   0   3   0   1      -2070.2169    
f3   3   0   1   1   0   2   1       315.58749    
f3   3   0   1   1   1   1   1       1034.5904    
f3   3   0   1   1   2   0   1      -918.40023    
f3   3   0   1   2   0   1   1      -303.92628    
f3   3   0   1   2   1   0   1      -3622.0295    
f3   3   0   1   3   0   0   1       3043.5520    
f3   3   0   2   0   0   2   1      -139.18958    
f3   3   0   2   0   1   1   2      -155.18430    
f3   3   0   2   0   2   0   1      -1581.2460    
f3   3   0   2   1   0   1   1       984.80307    
f3   3   0   2   1   1   0   1      -740.11030    
f3   3   0   2   2   0   0   1       1448.3614    
f3   3   0   3   0   0   1   1      -234.59855    
f3   3   0   3   0   1   0   1       2897.5821    
f3   3   1   0   0   0   3   1       13.599435    
f3   3   1   0   0   2   1   1       446.15248    
f3   3   1   0   0   3   0   1      -845.41953    
f3   3   1   0   1   0   2   1       348.98333    
f3   3   1   0   1   1   1   1      -2407.8139    
f3   3   1   0   1   2   0   1      -1828.8522    
f3   3   1   0   2   1   0   1       2516.8368    
f3   3   1   0   3   0   0   1      -3056.0720    
f3   3   1   1   0   1   1   1      -786.75076    
f3   3   1   1   0   2   0   2       1293.0201    
f3   3   1   1   1   0   1   1      -587.68270    
f3   3   1   1   1   1   0   1       518.45294    
f3   3   1   2   0   0   1   1      -1145.2687    
f3   3   1   2   0   1   0   1       1726.7472    
f3   3   2   0   0   1   1   1      -417.72793    
f3   3   2   0   0   2   0   1      -954.02356    
f3   3   2   0   1   0   1   1       457.63264    
f3   3   2   0   2   0   0   1       3599.5370    
f3   3   2   1   0   0   1   1      -211.52394    
f3   3   2   1   0   1   0   1       1646.6652    
f3   3   2   1   1   0   0   1       737.39216    
f3   3   2   2   0   0   0   1      -1244.8989    
f3   3   3   0   1   0   0   1       1027.1562    
f3   3   3   1   0   0   0   1       991.33465    
f3   3   4   0   0   0   0   1       1255.8996    
f4   4   0   0   0   0   3   2      -10.050935    
f4   4   0   0   0   3   0   1       529.49880    
f4   4   0   0   2   1   0   1      -1822.6427    
f4   4   0   0   3   0   0   1      -2863.3658    
f4   4   0   1   0   1   1   1       227.02270    
f4   4   0   1   0   2   0   1       232.73470    
f4   4   0   1   1   0   1   1       913.79772    
f4   4   0   1   1   1   0   1       412.60004    
f4   4   0   1   2   0   0   1       1101.7740    
f4   4   0   2   0   0   1   1       280.87605    
f4   4   0   2   0   1   0   1       1377.4975    
f4   4   0   2   1   0   0   1       1608.1652    
f4   4   0   3   0   0   0   1      -1432.1119    
f4   4   1   0   0   0   2   1       248.25426    
f4   4   1   0   0   2   0   1      -1368.4937    
f4   4   1   0   1   0   1   1       242.98476    
f4   4   1   0   1   1   0   1       739.59159    
f4   4   1   0   2   0   0   1      -1810.0097    
f4   4   1   1   0   0   1   1       234.99487    
f4   4   1   1   1   0   0   1       636.48336    
f4   4   1   2   0   0   0   1      -424.11430    
f4   4   2   0   0   1   0   1       1056.0667    
f4   4   2   1   0   0   0   1       484.28669    
f5   5   0   0   0   0   2   2       168.63902    
f5   5   0   0   0   2   0   1       519.06606    
f5   5   0   0   1   0   1   1      -619.88249    
f5   5   0   0   1   1   0   1       1700.0977    
f5   5   0   0   2   0   0   1       3899.2985    
f5   5   0   1   0   1   0   1       900.47680    
f5   5   0   1   1   0   0   1      -442.09689    
f5   5   1   0   0   1   0   1       1870.9083    
f5   5   2   0   0   0   0   1      -413.91504    
f6   6   0   0   0   0   1   2      -24.428844    
f6   6   0   0   0   1   0   1      -926.12528    
f6   6   0   0   1   0   0   1      -2663.3034    
f6   6   0   1   0   0   0   1      -202.70747    
f6   6   1   0   0   0   0   1      -2028.7648    
f7   7   0   0   0   0   0   2       1801.4896    
f0   0   0   0   0   0   8   2      0.23940964E-01
f0   0   0   0   0   1   7   1     -0.29424113    
f0   0   0   0   0   2   6   1      -1.0398256    
f0   0   0   0   0   3   5   1      -8.8805974    
f0   0   0   0   0   4   4   1       53.695546    
f0   0   0   0   0   5   3   1      -24.159538    
f0   0   0   0   0   6   2   1       2739.0036    
f0   0   0   0   0   7   1   1       37.462866    
f0   0   0   0   0   8   0   1       4434.8538    
f0   0   0   0   1   0   7   1     -0.73549741    
f0   0   0   0   1   1   6   1      -5.9427931    
f0   0   0   0   1   2   5   1      -67.336625    
f0   0   0   0   1   3   4   1      -24.834821    
f0   0   0   0   1   4   3   1       174.47942    
f0   0   0   0   1   5   2   1      -770.97798    
f0   0   0   0   1   6   1   1       852.43613    
f0   0   0   0   1   7   0   1      -952.34042    
f0   0   0   0   2   0   6   1      -4.9938071    
f0   0   0   0   2   1   5   1      -84.568794    
f0   0   0   0   2   2   4   1      -271.89648    
f0   0   0   0   2   3   3   1      -540.87734    
f0   0   0   0   2   4   2   1      -1879.7974    
f0   0   0   0   2   5   1   1       1366.5112    
f0   0   0   0   2   6   0   1       1068.3206    
f0   0   0   0   3   0   5   1      -23.849506    
f0   0   0   0   3   1   4   1      -123.25865    
f0   0   0   0   3   2   3   1      -460.85037    
f0   0   0   0   3   3   2   1      -3713.2557    
f0   0   0   0   3   4   1   1      -2209.0442    
f0   0   0   0   3   5   0   1       5246.1811    
f0   0   0   0   4   1   3   1       1050.0962    
f0   0   0   0   4   3   1   1      -12585.417    
f0   0   0   0   4   4   0   1       4947.3545    
f0   0   0   0   5   0   3   1       871.68036    
f0   0   0   0   5   1   2   1       1575.6800    
f0   0   0   0   5   2   1   1      -11797.478    
f0   0   0   0   5   3   0   1       12420.477    
f0   0   0   0   6   0   2   1       7713.0445    
f0   0   0   0   6   1   1   1       13752.178    
f0   0   0   0   6   2   0   1      -16637.673    
f0   0   0   0   7   0   1   1       11764.605    
f0   0   0   0   7   1   0   1      -21621.837    
f0   0   0   0   8   0   0   1       14098.385    
f0   0   0   1   0   2   5   1      -34.106909    
f0   0   0   1   0   3   4   1      -82.903560    
f0   0   0   1   0   4   3   1      -123.79002    
f0   0   0   1   0   5   2   1      -685.32380    
f0   0   0   1   0   6   1   1       1426.2245    
f0   0   0   1   0   7   0   1       4916.9902    
f0   0   0   1   1   0   6   1      -5.6751158    
f0   0   0   1   1   1   5   1      -79.204525    
f0   0   0   1   1   2   4   1      -533.56394    
f0   0   0   1   1   3   3   1      -1322.6280    
f0   0   0   1   1   4   2   1       1276.4168    
f0   0   0   1   1   5   1   1      -3970.0527    
f0   0   0   1   1   6   0   1       1196.1018    
f0   0   0   1   2   0   5   1      -24.909032    
f0   0   0   1   2   1   4   1      -437.49797    
f0   0   0   1   2   2   3   1      -2144.0633    
f0   0   0   1   2   3   2   1      -4126.8781    
f0   0   0   1   2   4   1   1       5374.8138    
f0   0   0   1   2   5   0   1       1041.2395    
f0   0   0   1   3   0   4   1      -151.59475    
f0   0   0   1   3   1   3   1      -1329.8997    
f0   0   0   1   3   2   2   1      -2439.0203    
f0   0   0   1   3   3   1   1      -9959.0559    
f0   0   0   1   3   4   0   1      -6768.9800    
f0   0   0   1   4   0   3   1      -433.60498    
f0   0   0   1   4   1   2   1      -2990.1292    
f0   0   0   1   4   2   1   1       2068.1779    
f0   0   0   1   4   3   0   1      -11287.264    
f0   0   0   1   5   0   2   1      -1149.6170    
f0   0   0   1   5   1   1   1       1790.6510    
f0   0   0   1   5   2   0   1      -9134.3715    
f0   0   0   1   6   0   1   1       1349.5835    
f0   0   0   1   6   1   0   1      -345.70730    
f0   0   0   1   7   0   0   1       4401.0178    
f0   0   0   2   0   0   6   2     -0.61821132    
f0   0   0   2   0   1   5   1      -19.002130    
f0   0   0   2   0   2   4   1      -207.20757    
f0   0   0   2   0   3   3   1      -386.98681    
f0   0   0   2   0   4   2   1      -245.48932    
f0   0   0   2   0   5   1   1       1381.0025    
f0   0   0   2   0   6   0   1      -2117.6335    
f0   0   0   2   1   0   5   1      -27.397679    
f0   0   0   2   1   1   4   1      -297.07878    
f0   0   0   2   1   2   3   1      -1181.4883    
f0   0   0   2   1   3   2   1      -5077.6866    
f0   0   0   2   1   4   1   1      -7199.5440    
f0   0   0   2   1   5   0   1      -1647.1007    
f0   0   0   2   2   0   4   1      -138.85071    
f0   0   0   2   2   1   3   1      -946.74138    
f0   0   0   2   2   2   2   1      -4783.0913    
f0   0   0   2   2   3   1   1      -22014.780    
f0   0   0   2   2   4   0   1      -3304.6707    
f0   0   0   2   3   0   3   1      -510.98165    
f0   0   0   2   3   1   2   1      -3461.4751    
f0   0   0   2   3   2   1   1      -19822.603    
f0   0   0   2   4   0   2   1      -698.57410    
f0   0   0   2   4   1   1   1      -12645.155    
f0   0   0   2   4   2   0   1      -3387.2947    
f0   0   0   2   5   0   1   1       4124.4020    
f0   0   0   2   5   1   0   1       2189.9058    
f0   0   0   2   6   0   0   1      -13421.165    
f0   0   0   3   0   0   5   1      -5.9963155    
f0   0   0   3   0   1   4   1      -74.723699    
f0   0   0   3   0   2   3   1      -556.46987    
f0   0   0   3   0   3   2   1      -855.77444    
f0   0   0   3   0   4   1   1      -1065.0207    
f0   0   0   3   0   5   0   1      -1335.7300    
f0   0   0   3   1   1   3   1      -453.96044    
f0   0   0   3   1   2   2   1      -5049.7409    
f0   0   0   3   1   3   1   1      -16251.042    
f0   0   0   3   1   4   0   1       1567.2147    
f0   0   0   3   2   0   3   1      -450.72975    
f0   0   0   3   2   1   2   1      -3963.7790    
f0   0   0   3   2   2   1   1       1796.1927    
f0   0   0   3   2   3   0   1      -13269.339    
f0   0   0   3   3   0   2   1      -1173.6430    
f0   0   0   3   3   1   1   1      -2346.7264    
f0   0   0   3   3   2   0   1      -15185.356    
f0   0   0   3   4   0   1   1       2105.6832    
f0   0   0   3   4   1   0   1      -11166.460    
f0   0   0   3   5   0   0   1       964.98153    
f0   0   0   4   0   0   4   1       25.829325    
f0   0   0   4   0   1   3   1      -269.28545    
f0   0   0   4   0   2   2   1      -657.61973    
f0   0   0   4   0   3   1   1      -334.04591    
f0   0   0   4   0   4   0   1      -315.17186    
f0   0   0   4   1   0   3   1      -423.97247    
f0   0   0   4   1   2   1   1      -2736.3932    
f0   0   0   4   1   3   0   1      -16437.229    
f0   0   0   4   2   0   2   1       567.38806    
f0   0   0   4   2   1   1   1      -5757.9112    
f0   0   0   4   2   2   0   1      -19099.609    
f0   0   0   4   3   0   1   1       1591.2228    
f0   0   0   4   3   1   0   1      -3720.2668    
f0   0   0   4   4   0   0   1      -10326.895    
f0   0   0   5   0   1   2   1      -155.77042    
f0   0   0   5   0   2   1   1      -2057.0993    
f0   0   0   5   0   3   0   1      -509.68113    
f0   0   0   5   1   0   2   1      -742.54297    
f0   0   0   5   1   1   1   1      -4120.8358    
f0   0   0   5   1   2   0   1       7773.9983    
f0   0   0   5   2   0   1   1      -1571.1496    
f0   0   0   5   2   1   0   1       3012.2753    
f0   0   0   5   3   0   0   1       4121.2267    
f0   0   0   6   0   1   1   1       1092.9729    
f0   0   0   6   0   2   0   1      -4674.3568    
f0   0   0   6   1   0   1   1       3129.6231    
f0   0   0   6   1   1   0   1      -4569.7332    
f0   0   0   6   2   0   0   1      -6525.7088    
f0   0   0   7   0   0   1   1      -138.68709    
f0   0   0   7   0   1   0   1       4905.4861    
f0   0   0   7   1   0   0   1       4723.8395    
f0   0   0   8   0   0   0   1      -1372.2447    
f0   0   1   0   0   1   6   1      -2.5985072    
f0   0   1   0   0   2   5   1      -12.051662    
f0   0   1   0   0   5   2   1      -108.26560    
f0   0   1   0   0   6   1   1      -174.29041    
f0   0   1   0   0   7   0   1       482.33364    
f0   0   1   0   1   0   6   1      -1.9981755    
f0   0   1   0   1   1   5   1      -16.866837    
f0   0   1   0   1   2   4   1      -45.626641    
f0   0   1   0   1   3   3   1       170.15923    
f0   0   1   0   1   4   2   1       788.16031    
f0   0   1   0   1   5   1   1      -1061.0805    
f0   0   1   0   2   0   5   1      -7.5398133    
f0   0   1   0   2   1   4   1      -191.02466    
f0   0   1   0   2   2   3   1      -455.55710    
f0   0   1   0   2   4   1   1       695.49626    
f0   0   1   0   3   0   4   1      -22.056243    
f0   0   1   0   3   1   3   1      -469.31022    
f0   0   1   0   3   2   2   1      -753.90898    
f0   0   1   0   3   3   1   1      -1855.7988    
f0   0   1   0   3   4   0   1       3990.7679    
f0   0   1   0   4   0   3   1      -148.28550    
f0   0   1   0   4   1   2   1      -527.11100    
f0   0   1   0   4   2   1   1      -2192.3218    
f0   0   1   0   4   3   0   1      -3449.8020    
f0   0   1   0   5   0   2   1      -387.45660    
f0   0   1   0   5   1   1   1       1716.8601    
f0   0   1   0   6   0   1   1       1348.9383    
f0   0   1   0   6   1   0   1      -2844.4621    
f0   0   1   0   7   0   0   1       984.35292    
f0   0   1   1   0   1   5   1      -24.274517    
f0   0   1   1   0   2   4   1      -44.881060    
f0   0   1   1   0   3   3   1       69.575480    
f0   0   1   1   0   4   2   1      -350.29842    
f0   0   1   1   0   5   1   1      -1199.0401    
f0   0   1   1   0   6   0   1      -1163.1628    
f0   0   1   1   1   0   5   1      -39.558545    
f0   0   1   1   1   1   4   1      -225.87335    
f0   0   1   1   1   2   3   1      -573.70324    
f0   0   1   1   1   3   2   1      -786.10194    
f0   0   1   1   1   5   0   1      -4134.3910    
f0   0   1   1   2   0   4   1      -92.554389    
f0   0   1   1   2   1   3   1      -875.07079    
f0   0   1   1   2   2   2   1      -2683.3651    
f0   0   1   1   2   3   1   1       4149.5638    
f0   0   1   1   2   4   0   1       3260.5676    
f0   0   1   1   3   0   3   1      -316.30633    
f0   0   1   1   3   2   1   1       1212.6444    
f0   0   1   1   3   3   0   1      -1266.4175    
f0   0   1   1   4   1   1   1       6401.4091    
f0   0   1   1   4   2   0   1       1401.9465    
f0   0   1   1   5   1   0   1      -1571.3568    
f0   0   1   1   6   0   0   1       1716.7078    
f0   0   1   2   0   1   4   1      -141.02648    
f0   0   1   2   0   2   3   1      -529.93543    
f0   0   1   2   0   3   2   1      -715.30489    
f0   0   1   2   0   4   1   1      -2084.2754    
f0   0   1   2   0   5   0   1      -5419.5692    
f0   0   1   2   1   0   4   1      -129.73107    
f0   0   1   2   1   1   3   1      -731.98475    
f0   0   1   2   1   2   2   1      -1802.7538    
f0   0   1   2   1   3   1   1      -1906.0298    
f0   0   1   2   1   4   0   1      -535.40882    
f0   0   1   2   2   0   3   2      -99.969566    
f0   0   1   2   2   2   1   1      -7583.7578    
f0   0   1   2   2   3   0   1       7029.6066    
f0   0   1   2   3   1   1   1       2559.1555    
f0   0   1   2   3   2   0   1       5370.7851    
f0   0   1   2   4   0   1   1       1393.1737    
f0   0   1   2   5   0   0   1       4136.5280    
f0   0   1   3   0   0   4   2      -62.951151    
f0   0   1   3   0   1   3   1      -391.31065    
f0   0   1   3   0   2   2   1      -1032.0565    
f0   0   1   3   0   3   1   1      -1715.6497    
f0   0   1   3   0   4   0   1       326.39886    
f0   0   1   3   1   0   3   1      -562.15106    
f0   0   1   3   1   1   2   1      -2392.9939    
f0   0   1   3   1   2   1   1      -3285.6118    
f0   0   1   3   1   3   0   1      -6906.0632    
f0   0   1   3   2   0   2   1      -1869.2822    
f0   0   1   3   3   0   1   1      -810.95096    
f0   0   1   3   3   1   0   1      -2061.6420    
f0   0   1   3   4   0   0   1      -796.42273    
f0   0   1   4   0   0   3   1      -179.86450    
f0   0   1   4   1   0   2   1      -628.83567    
f0   0   1   4   1   1   1   1      -2932.9340    
f0   0   1   4   1   2   0   1      -2998.4880    
f0   0   1   4   2   0   1   1       1696.0750    
f0   0   1   4   2   1   0   1      -4974.6317    
f0   0   1   4   3   0   0   1       1842.2605    
f0   0   1   5   0   1   1   1      -1722.4442    
f0   0   1   5   1   0   1   1      -812.20588    
f0   0   1   5   1   1   0   1       2765.0028    
f0   0   1   5   2   0   0   1      -2914.3673    
f0   0   1   6   0   1   0   1       1158.8047    
f0   0   1   6   1   0   0   1       911.09742    
f0   0   1   7   0   0   0   1      -1844.3782    
f0   0   2   0   0   3   3   1       93.595032    
f0   0   2   0   0   4   2   1      -402.85969    
f0   0   2   0   0   5   1   1       77.297031    
f0   0   2   0   0   6   0   1      -537.85473    
f0   0   2   0   1   2   3   1      -159.23807    
f0   0   2   0   1   3   2   1       327.64531    
f0   0   2   0   1   5   0   1       274.11705    
f0   0   2   0   2   1   3   1      -462.99218    
f0   0   2   0   2   2   2   1       431.98537    
f0   0   2   0   2   3   1   1       2767.4692    
f0   0   2   0   2   4   0   1      -810.27713    
f0   0   2   0   3   0   3   1      -304.06376    
f0   0   2   0   3   1   2   1      -1048.9356    
f0   0   2   0   3   2   1   1       2301.1847    
f0   0   2   0   3   3   0   1      -2021.6775    
f0   0   2   0   4   0   2   1      -872.40297    
f0   0   2   0   4   1   1   1      -1357.4424    
f0   0   2   0   4   2   0   1       3274.6631    
f0   0   2   0   5   0   1   1      -4209.3349    
f0   0   2   0   5   1   0   1       2694.7368    
f0   0   2   0   6   0   0   1      -9147.9750    
f0   0   2   1   0   0   5   2      -3.5738225    
f0   0   2   1   0   1   4   1      -92.337949    
f0   0   2   1   0   3   2   1       450.88093    
f0   0   2   1   0   4   1   1       220.98294    
f0   0   2   1   0   5   0   1      -4257.5295    
f0   0   2   1   1   0   4   1      -102.10755    
f0   0   2   1   1   1   3   1      -322.57206    
f0   0   2   1   1   2   2   1       544.33872    
f0   0   2   1   1   3   1   1       960.78327    
f0   0   2   1   1   4   0   1      -590.83715    
f0   0   2   1   2   0   3   1      -215.00155    
f0   0   2   1   2   2   1   1       2604.1606    
f0   0   2   1   2   3   0   1       8646.0989    
f0   0   2   1   3   1   1   1       1965.4440    
f0   0   2   1   3   2   0   1       4953.3898    
f0   0   2   1   4   0   1   1       1239.4440    
f0   0   2   1   4   1   0   1       2875.8622    
f0   0   2   1   5   0   0   1       1250.6963    
f0   0   2   2   0   1   3   1      -271.12283    
f0   0   2   2   0   2   2   1      -714.72164    
f0   0   2   2   0   3   1   1       1251.1897    
f0   0   2   2   0   4   0   1      -1463.1127    
f0   0   2   2   1   1   2   1      -1180.2324    
f0   0   2   2   1   2   1   1       6257.1615    
f0   0   2   2   2   1   1   1       4867.9352    
f0   0   2   2   2   2   0   1       6376.2817    
f0   0   2   2   3   0   1   1      -749.44108    
f0   0   2   2   3   1   0   1       5580.8798    
f0   0   2   2   4   0   0   1       5232.7655    
f0   0   2   3   0   1   2   1      -1375.4458    
f0   0   2   3   0   2   1   1      -1288.4817    
f0   0   2   3   0   3   0   1      -845.09174    
f0   0   2   3   1   0   2   1      -294.79960    
f0   0   2   3   1   2   0   1      -2567.8364    
f0   0   2   3   2   0   1   1      -4345.6679    
f0   0   2   3   2   1   0   1      -5773.2679    
f0   0   2   3   3   0   0   1      -7803.9190    
f0   0   2   4   0   0   2   1      -80.179310    
f0   0   2   4   0   1   1   1      -1998.2057    
f0   0   2   4   0   2   0   1      -1030.6912    
f0   0   2   4   1   0   1   1      -2026.6642    
f0   0   2   4   1   1   0   1      -3066.1329    
f0   0   2   5   0   1   0   1      -1192.4513    
f0   0   2   5   1   0   0   1      -5185.3376    
f0   0   2   6   0   0   0   1       528.99191    
f0   0   3   0   0   2   3   1       116.13626    
f0   0   3   0   0   3   2   1       659.87706    
f0   0   3   0   0   5   0   1      -824.44031    
f0   0   3   0   1   2   2   1       759.48981    
f0   0   3   0   1   3   1   1       716.69482    
f0   0   3   0   1   4   0   1       1282.3506    
f0   0   3   0   2   2   1   1       1455.7934    
f0   0   3   0   2   3   0   1       1556.4215    
f0   0   3   0   3   1   1   1       5314.5267    
f0   0   3   0   3   2   0   1      -1466.9890    
f0   0   3   0   4   1   0   1      -936.98645    
f0   0   3   0   5   0   0   1      -985.40428    
f0   0   3   1   0   2   2   1       236.31728    
f0   0   3   1   0   3   1   1       1272.1011    
f0   0   3   1   0   4   0   1       2203.9731    
f0   0   3   1   1   2   1   1       2008.2572    
f0   0   3   1   1   3   0   1       4853.7235    
f0   0   3   1   2   2   0   1       1868.2629    
f0   0   3   1   3   0   1   1      -880.72852    
f0   0   3   1   3   1   0   1       2274.0294    
f0   0   3   2   0   1   2   1      -552.08401    
f0   0   3   2   0   2   1   1       892.86110    
f0   0   3   2   0   3   0   1       1452.5058    
f0   0   3   2   1   1   1   1      -2654.2831    
f0   0   3   2   1   2   0   1       2045.2185    
f0   0   3   2   2   0   1   1      -3268.4811    
f0   0   3   2   2   1   0   1       6054.4820    
f0   0   3   2   3   0   0   1      -3859.1181    
f0   0   3   3   0   1   1   1      -981.17168    
f0   0   3   3   0   2   0   1       3544.4601    
f0   0   3   3   1   0   1   1      -2089.9460    
f0   0   3   3   1   1   0   1      -1847.1423    
f0   0   3   3   2   0   0   1      -6394.3140    
f0   0   3   4   0   0   1   1      -334.04571    
f0   0   3   4   0   1   0   1      -1346.3795    
f0   0   3   4   1   0   0   1      -907.07940    
f0   0   3   5   0   0   0   1      -1434.1390    
f0   0   4   0   0   3   1   1       219.05449    
f0   0   4   0   1   0   3   1       95.905870    
f0   0   4   0   1   3   0   1       657.71940    
f0   0   4   0   2   0   2   1       523.08968    
f0   0   4   0   2   2   0   1       2305.0123    
f0   0   4   0   3   0   1   1      -1358.0090    
f0   0   4   0   4   0   0   1      -4079.1601    
f0   0   4   1   0   0   3   1      -60.014546    
f0   0   4   1   0   1   2   1      -451.40473    
f0   0   4   1   0   2   1   1       534.24015    
f0   0   4   1   0   3   0   1       1612.3064    
f0   0   4   1   1   0   2   2       338.88863    
f0   0   4   1   1   1   1   1      -349.05794    
f0   0   4   1   1   2   0   1       1289.6984    
f0   0   4   1   2   1   0   1      -734.71932    
f0   0   4   2   0   1   1   2      -286.24797    
f0   0   4   2   0   2   0   1       4023.3160    
f0   0   4   2   2   0   0   1      -3163.7571    
f0   0   4   3   0   0   1   1      -883.10930    
f0   0   4   3   0   1   0   1      -2413.1445    
f0   0   4   4   0   0   0   1      -1844.1385    
f0   0   5   0   0   0   3   2       18.331302    
f0   0   5   0   0   2   1   1       225.60195    
f0   0   5   0   0   3   0   1      -791.39285    
f0   0   5   0   1   1   1   1       1402.0209    
f0   0   5   0   1   2   0   1      -1538.0700    
f0   0   5   0   2   0   1   1       474.41925    
f0   0   5   0   3   0   0   1       675.12631    
f0   0   5   1   0   2   0   1       1204.9246    
f0   0   5   1   1   0   1   1      -832.62773    
f0   0   5   1   2   0   0   1      -1500.2473    
f0   0   5   2   0   1   0   1       1865.4300    
f0   0   5   2   1   0   0   1       1530.6862    
f0   0   5   3   0   0   0   1      -1352.0154    
f0   0   6   0   0   0   2   1       462.97166    
f0   0   6   0   0   1   1   1      -176.80589    
f0   0   6   0   0   2   0   1      -121.18435    
f0   0   6   0   1   1   0   1       1713.1344    
f0   0   6   0   2   0   0   1      -1951.3566    
f0   0   6   1   0   0   1   1       145.64675    
f0   0   6   1   0   1   0   1       1149.4080    
f0   0   7   0   0   0   1   1       220.60317    
f0   0   7   0   0   1   0   2       136.33991    
f0   0   7   0   1   0   0   1       133.37923    
f0   0   8   0   0   0   0   1       308.96850    
f1   1   0   0   0   1   6   1       2.7386741    
f1   1   0   0   0   2   5   1       21.781499    
f1   1   0   0   0   3   4   1       35.455217    
f1   1   0   0   0   5   2   1       733.38003    
f1   1   0   0   0   6   1   1      -675.87570    
f1   1   0   0   0   7   0   1      -6797.5187    
f1   1   0   0   1   2   4   1       360.12352    
f1   1   0   0   1   3   3   1       413.30704    
f1   1   0   0   1   4   2   1      -608.60460    
f1   1   0   0   1   5   1   1      -1579.8625    
f1   1   0   0   1   6   0   1      -1492.5454    
f1   1   0   0   2   1   4   1       457.26052    
f1   1   0   0   2   2   3   1       590.20466    
f1   1   0   0   2   3   2   1       4252.0392    
f1   1   0   0   2   4   1   1      -984.07010    
f1   1   0   0   2   5   0   1       429.13373    
f1   1   0   0   3   0   4   1      -48.625059    
f1   1   0   0   3   1   3   1      -327.07429    
f1   1   0   0   3   2   2   1       1680.0190    
f1   1   0   0   3   3   1   1       10886.417    
f1   1   0   0   3   4   0   1      -13248.658    
f1   1   0   0   4   0   3   1      -600.03647    
f1   1   0   0   4   1   2   1      -4036.0120    
f1   1   0   0   4   2   1   1       14214.718    
f1   1   0   0   4   3   0   1       809.36547    
f1   1   0   0   5   0   2   1       1032.5541    
f1   1   0   0   5   1   1   1      -753.93125    
f1   1   0   0   5   2   0   1      -16353.396    
f1   1   0   0   6   0   1   1      -14470.227    
f1   1   0   0   6   1   0   1       17640.637    
f1   1   0   1   0   1   5   1       31.126449    
f1   1   0   1   0   2   4   1       223.89747    
f1   1   0   1   0   3   3   1       587.99481    
f1   1   0   1   0   4   2   1       1653.5477    
f1   1   0   1   0   5   1   1      -1446.0933    
f1   1   0   1   0   6   0   1      -3633.4882    
f1   1   0   1   1   0   5   1      -3.2572371    
f1   1   0   1   1   1   4   1       562.06643    
f1   1   0   1   1   2   3   1       1931.1149    
f1   1   0   1   1   3   2   1       5855.8333    
f1   1   0   1   1   4   1   1       19112.200    
f1   1   0   1   2   1   3   1       2053.6467    
f1   1   0   1   2   2   2   1       10469.019    
f1   1   0   1   2   3   1   1       10134.690    
f1   1   0   1   2   4   0   1      -1804.4982    
f1   1   0   1   3   0   3   1       537.94620    
f1   1   0   1   3   1   2   1       5790.3906    
f1   1   0   1   3   2   1   1       24160.511    
f1   1   0   1   3   3   0   1       15651.527    
f1   1   0   1   4   0   2   1       2442.6130    
f1   1   0   1   4   1   1   1       1129.9556    
f1   1   0   1   4   2   0   1       10285.436    
f1   1   0   1   5   0   1   1      -15147.405    
f1   1   0   1   5   1   0   1       5122.6855    
f1   1   0   1   6   0   0   1       11738.292    
f1   1   0   2   0   0   5   1       30.830710    
f1   1   0   2   0   1   4   1       204.01431    
f1   1   0   2   0   2   3   1       990.60775    
f1   1   0   2   0   3   2   1       3321.9885    
f1   1   0   2   0   4   1   1       527.73079    
f1   1   0   2   0   5   0   1       2632.3215    
f1   1   0   2   1   1   3   1       1435.1942    
f1   1   0   2   1   2   2   1       11316.224    
f1   1   0   2   1   3   1   1       28957.187    
f1   1   0   2   1   4   0   1       4657.2693    
f1   1   0   2   2   0   3   1       932.17576    
f1   1   0   2   2   1   2   1       8085.7205    
f1   1   0   2   2   2   1   1       21816.600    
f1   1   0   2   2   3   0   1       26747.359    
f1   1   0   2   3   0   2   1       4578.5820    
f1   1   0   2   3   1   1   1       24292.683    
f1   1   0   2   3   2   0   1       4110.3720    
f1   1   0   2   4   0   1   1       3035.8678    
f1   1   0   2   4   1   0   1       3462.7461    
f1   1   0   2   5   0   0   1      -4886.9608    
f1   1   0   3   0   1   3   1       471.82230    
f1   1   0   3   0   2   2   1       2272.6967    
f1   1   0   3   0   3   1   1       2084.3815    
f1   1   0   3   0   4   0   1       6542.2357    
f1   1   0   3   1   0   3   1       876.49885    
f1   1   0   3   1   1   2   1       3025.3625    
f1   1   0   3   1   2   1   1       24600.747    
f1   1   0   3   1   3   0   1       22023.275    
f1   1   0   3   2   0   2   1       305.67376    
f1   1   0   3   2   2   0   1       22175.778    
f1   1   0   3   3   0   1   1      -10760.587    
f1   1   0   3   3   1   0   1       14231.225    
f1   1   0   3   4   0   0   1       25113.447    
f1   1   0   4   0   1   2   1       1089.0715    
f1   1   0   4   0   2   1   1       4857.8250    
f1   1   0   4   0   3   0   1       516.51949    
f1   1   0   4   1   0   2   1       2548.4951    
f1   1   0   4   1   1   1   1       15185.731    
f1   1   0   4   2   0   1   1       5693.2953    
f1   1   0   4   3   0   0   1      -12484.648    
f1   1   0   5   0   1   1   1      -1079.8554    
f1   1   0   5   0   2   0   1       4692.3677    
f1   1   0   5   1   0   1   1      -10206.226    
f1   1   0   5   1   1   0   1       12734.528    
f1   1   0   5   2   0   0   1       25658.170    
f1   1   0   6   0   0   1   1       837.79766    
f1   1   0   6   0   1   0   1      -7936.1626    
f1   1   0   6   1   0   0   1      -15962.735    
f1   1   0   7   0   0   0   1       3360.3775    
f1   1   1   0   0   2   4   1      -32.378232    
f1   1   1   0   0   3   3   1       173.61371    
f1   1   1   0   0   4   2   2       452.61989    
f1   1   1   0   0   6   0   1      -187.62401    
f1   1   1   0   1   0   5   1       22.238388    
f1   1   1   0   1   1   4   1       204.29493    
f1   1   1   0   1   2   3   1       523.72373    
f1   1   1   0   1   3   2   1      -721.40782    
f1   1   1   0   1   4   1   1       3010.1227    
f1   1   1   0   1   5   0   1      -1016.2212    
f1   1   1   0   2   0   4   1       202.81847    
f1   1   1   0   2   1   3   1       1664.1052    
f1   1   1   0   2   2   2   1       1086.0904    
f1   1   1   0   2   3   1   1      -3518.3564    
f1   1   1   0   2   4   0   1       3174.7349    
f1   1   1   0   3   0   3   1       997.27556    
f1   1   1   0   3   1   2   1       3390.3940    
f1   1   1   0   3   2   1   1       6975.7089    
f1   1   1   0   3   3   0   1      -3022.5049    
f1   1   1   0   4   0   2   1       1348.2252    
f1   1   1   0   4   1   1   1      -3075.0854    
f1   1   1   0   4   2   0   1       7219.5205    
f1   1   1   0   5   0   1   1       2943.2798    
f1   1   1   0   6   0   0   1       6855.4990    
f1   1   1   1   0   1   4   1       103.73817    
f1   1   1   1   0   2   3   1       385.23565    
f1   1   1   1   0   3   2   1       662.41982    
f1   1   1   1   0   4   1   1       1535.0597    
f1   1   1   1   0   5   0   1       1473.9790    
f1   1   1   1   1   0   4   1       238.47429    
f1   1   1   1   1   1   3   1       1286.7662    
f1   1   1   1   1   2   2   1       2047.3887    
f1   1   1   1   1   4   0   1       2225.1664    
f1   1   1   1   2   0   3   1       602.08801    
f1   1   1   1   2   1   2   1       2284.0120    
f1   1   1   1   2   2   1   1       9387.1873    
f1   1   1   1   2   3   0   1      -4249.4626    
f1   1   1   1   3   0   2   1      -1128.2367    
f1   1   1   1   3   1   1   1      -6488.3877    
f1   1   1   1   3   2   0   1      -1929.4724    
f1   1   1   1   4   0   1   1      -3090.2127    
f1   1   1   1   4   1   0   1      -1925.8439    
f1   1   1   1   5   0   0   1      -10301.367    
f1   1   1   2   0   1   3   1       502.58933    
f1   1   1   2   0   2   2   1       2217.9083    
f1   1   1   2   0   3   1   1       2720.2334    
f1   1   1   2   0   4   0   1       3854.7621    
f1   1   1   2   1   0   3   1       607.80054    
f1   1   1   2   1   1   2   1       2982.1188    
f1   1   1   2   1   2   1   1       4362.0420    
f1   1   1   2   1   3   0   1      -8716.1754    
f1   1   1   2   2   1   1   1      -2521.7057    
f1   1   1   2   2   2   0   1      -5050.7215    
f1   1   1   2   3   1   0   1       7403.1597    
f1   1   1   2   4   0   0   1      -11113.395    
f1   1   1   3   0   0   3   1       514.06587    
f1   1   1   3   0   1   2   1       1220.4029    
f1   1   1   3   0   2   1   1       4913.7480    
f1   1   1   3   1   1   1   1       2209.1005    
f1   1   1   3   1   2   0   1       10947.530    
f1   1   1   4   0   1   1   1       2090.5434    
f1   1   1   4   0   2   0   1      -1335.8628    
f1   1   1   4   1   1   0   1       1680.3715    
f1   1   1   4   2   0   0   1      -4018.2262    
f1   1   1   5   0   0   1   1      -1245.4968    
f1   1   1   5   0   1   0   1      -1374.7605    
f1   1   1   5   1   0   0   1       7443.9030    
f1   1   1   6   0   0   0   1       1819.2331    
f1   1   2   0   0   2   3   1      -120.14050    
f1   1   2   0   0   4   1   1       445.22384    
f1   1   2   0   0   5   0   1       1113.8328    
f1   1   2   0   1   2   2   1      -1243.0771    
f1   1   2   0   1   3   1   1      -524.16317    
f1   1   2   0   1   4   0   1       3001.0393    
f1   1   2   0   2   1   2   1      -857.48727    
f1   1   2   0   2   2   1   1      -6311.3813    
f1   1   2   0   2   3   0   1      -905.12518    
f1   1   2   0   3   2   0   1       5595.0062    
f1   1   2   0   4   0   1   1       3907.9063    
f1   1   2   0   4   1   0   1      -5717.2450    
f1   1   2   0   5   0   0   1       4982.6485    
f1   1   2   1   0   0   4   2       73.822804    
f1   1   2   1   0   3   1   1      -1369.1558    
f1   1   2   1   0   4   0   1       5965.4404    
f1   1   2   1   1   0   3   1       139.87216    
f1   1   2   1   1   1   2   1      -890.49468    
f1   1   2   1   1   2   1   1      -9417.2454    
f1   1   2   1   1   3   0   1      -1830.9199    
f1   1   2   1   2   1   1   1      -10661.508    
f1   1   2   1   2   2   0   1      -13679.533    
f1   1   2   1   3   0   1   1       1902.6329    
f1   1   2   1   3   1   0   1      -1326.4338    
f1   1   2   1   4   0   0   1      -4188.1817    
f1   1   2   2   0   2   1   1       2431.6299    
f1   1   2   2   1   1   1   1      -5678.0385    
f1   1   2   2   1   2   0   1       4569.9240    
f1   1   2   2   2   0   1   1      -7595.1084    
f1   1   2   2   2   1   0   1      -8343.5420    
f1   1   2   2   3   0   0   1       10950.003    
f1   1   2   3   0   0   2   1       140.13323    
f1   1   2   3   0   1   1   1      -759.04913    
f1   1   2   3   0   2   0   1       6753.9220    
f1   1   2   3   1   0   1   1       1548.7146    
f1   1   2   3   1   1   0   1      -11585.540    
f1   1   2   3   2   0   0   1      -13592.607    
f1   1   2   4   1   0   0   1       6025.8791    
f1   1   3   0   0   3   1   1       1507.9523    
f1   1   3   0   0   4   0   1      -803.12269    
f1   1   3   0   1   1   2   1      -1589.7068    
f1   1   3   0   1   2   1   1      -2793.5192    
f1   1   3   0   2   0   2   1      -1128.7077    
f1   1   3   0   2   1   1   1       2364.9160    
f1   1   3   0   2   2   0   1      -811.65163    
f1   1   3   0   3   0   1   1      -1168.7061    
f1   1   3   0   3   1   0   1      -1510.9311    
f1   1   3   0   4   0   0   1      -1893.6496    
f1   1   3   1   0   1   2   2      -596.31921    
f1   1   3   1   0   2   1   1      -2726.7663    
f1   1   3   1   0   3   0   1      -5579.0567    
f1   1   3   1   1   1   1   1       1341.2871    
f1   1   3   1   1   2   0   1      -2693.1360    
f1   1   3   1   2   0   1   1      -3646.9173    
f1   1   3   1   2   1   0   1      -11691.045    
f1   1   3   2   0   1   1   1      -3842.7842    
f1   1   3   2   1   0   1   1      -1983.9002    
f1   1   3   2   1   1   0   1      -2842.3218    
f1   1   3   2   2   0   0   1      -7738.0582    
f1   1   3   3   0   1   0   1      -4521.9370    
f1   1   3   3   1   0   0   1      -3119.6153    
f1   1   4   0   0   3   0   1      -477.68606    
f1   1   4   0   1   0   2   1      -411.95634    
f1   1   4   0   1   1   1   1      -1885.8652    
f1   1   4   0   1   2   0   1       1266.4194    
f1   1   4   0   2   0   1   1      -1600.9539    
f1   1   4   0   3   0   0   1      -3661.5113    
f1   1   4   1   0   1   1   1       1758.2937    
f1   1   4   1   0   2   0   1      -1445.2526    
f1   1   4   1   1   1   0   1       2496.7312    
f1   1   4   1   2   0   0   1      -5721.2484    
f1   1   4   2   0   0   1   1      -919.86843    
f1   1   4   2   0   1   0   1       1384.5357    
f1   1   5   0   0   2   0   1       1499.2928    
f1   1   5   0   1   1   0   1      -2314.2571    
f1   1   5   1   0   1   0   1      -3210.8914    
f1   1   5   1   1   0   0   1       601.45341    
f1   1   5   2   0   0   0   1      -1440.5423    
f1   1   6   0   0   0   1   1      -404.71619    
f1   1   6   0   1   0   0   1      -460.83957    
f1   1   7   0   0   0   0   1      -1895.0011    
f2   2   0   0   0   4   2   1      -421.28068    
f2   2   0   0   0   6   0   1       5011.1505    
f2   2   0   0   1   2   3   1      -576.87749    
f2   2   0   0   1   4   1   1       3217.9217    
f2   2   0   0   1   5   0   1      -1494.5331    
f2   2   0   0   2   0   4   1       74.611852    
f2   2   0   0   2   1   3   1      -566.56344    
f2   2   0   0   2   2   2   1      -233.73841    
f2   2   0   0   2   3   1   1       4511.9781    
f2   2   0   0   2   4   0   1      -4005.1451    
f2   2   0   0   3   0   3   1       115.08162    
f2   2   0   0   3   1   2   1      -2835.9044    
f2   2   0   0   3   2   1   1      -11018.950    
f2   2   0   0   3   3   0   1       2869.1843    
f2   2   0   0   4   1   1   1      -7190.1606    
f2   2   0   0   4   2   0   1       4377.0950    
f2   2   0   0   5   0   1   1       3734.5983    
f2   2   0   0   5   1   0   1       11278.716    
f2   2   0   0   6   0   0   1      -6997.9701    
f2   2   0   1   0   2   3   1      -527.82406    
f2   2   0   1   0   3   2   1      -1746.8922    
f2   2   0   1   0   4   1   1       1185.4306    
f2   2   0   1   0   5   0   1      -427.14720    
f2   2   0   1   1   1   3   1      -969.89483    
f2   2   0   1   1   2   2   1      -5763.0737    
f2   2   0   1   1   3   1   1      -15120.831    
f2   2   0   1   2   0   3   1      -205.69602    
f2   2   0   1   2   1   2   1      -5595.7557    
f2   2   0   1   2   2   1   1      -10789.988    
f2   2   0   1   2   3   0   1      -6800.1697    
f2   2   0   1   3   0   2   1      -2668.5833    
f2   2   0   1   3   1   1   1      -12578.763    
f2   2   0   1   3   2   0   1       5650.4975    
f2   2   0   1   4   0   1   1      -4774.3156    
f2   2   0   1   4   1   0   1      -17591.585    
f2   2   0   1   5   0   0   1       4112.8346    
f2   2   0   2   0   1   3   1      -509.86865    
f2   2   0   2   0   2   2   1      -2856.9414    
f2   2   0   2   0   3   1   1      -1786.5909    
f2   2   0   2   0   4   0   1       1736.4731    
f2   2   0   2   1   0   3   1      -239.29223    
f2   2   0   2   1   1   2   1      -5028.3552    
f2   2   0   2   1   2   1   1      -24248.307    
f2   2   0   2   1   3   0   1      -12122.226    
f2   2   0   2   2   0   2   1      -1684.6749    
f2   2   0   2   2   2   0   1      -10825.336    
f2   2   0   2   4   0   0   1      -15134.501    
f2   2   0   3   0   1   2   1      -718.08218    
f2   2   0   3   0   2   1   1      -1393.5387    
f2   2   0   3   0   3   0   1      -4755.0082    
f2   2   0   3   1   0   2   1      -2758.9618    
f2   2   0   3   1   1   1   1      -13579.949    
f2   2   0   3   1   2   0   1      -6693.1894    
f2   2   0   3   2   0   1   1      -1078.4846    
f2   2   0   3   2   1   0   1      -3744.8631    
f2   2   0   3   3   0   0   1       13230.882    
f2   2   0   4   0   1   1   1       1154.1500    
f2   2   0   4   0   2   0   1       4661.6275    
f2   2   0   4   1   0   1   1       3685.6422    
f2   2   0   4   1   1   0   1      -1676.3321    
f2   2   0   4   2   0   0   1      -17217.410    
f2   2   0   5   0   0   1   1      -751.61194    
f2   2   0   5   0   1   0   1      -2949.0725    
f2   2   0   5   1   0   0   1       7841.6865    
f2   2   0   6   0   0   0   1      -5658.4627    
f2   2   1   0   0   4   1   1      -1346.0078    
f2   2   1   0   0   5   0   1      -667.76461    
f2   2   1   0   1   1   3   1      -295.98369    
f2   2   1   0   1   3   1   1      -2765.2287    
f2   2   1   0   1   4   0   1       844.81774    
f2   2   1   0   2   0   3   1      -430.14531    
f2   2   1   0   2   1   2   1      -609.76139    
f2   2   1   0   2   2   1   1       4608.9935    
f2   2   1   0   2   3   0   1       4957.5428    
f2   2   1   0   3   0   2   1      -1079.2659    
f2   2   1   0   3   1   1   1      -8818.5486    
f2   2   1   0   3   2   0   1      -3463.8192    
f2   2   1   0   4   0   1   1      -1686.8135    
f2   2   1   0   4   1   0   1       2484.3494    
f2   2   1   0   5   0   0   1      -5607.0483    
f2   2   1   1   0   1   3   1      -267.56838    
f2   2   1   1   0   3   1   1      -2123.1805    
f2   2   1   1   1   0   3   1      -491.82960    
f2   2   1   1   1   2   1   1       3951.0227    
f2   2   1   1   1   3   0   1      -4402.5128    
f2   2   1   1   2   1   1   1      -2137.8774    
f2   2   1   1   3   0   1   1      -1008.6502    
f2   2   1   1   3   1   0   1       10547.520    
f2   2   1   1   4   0   0   1       11246.080    
f2   2   1   2   0   0   3   1      -91.228680    
f2   2   1   2   0   1   2   1      -2334.6609    
f2   2   1   2   0   2   1   1      -4259.6107    
f2   2   1   2   0   3   0   1      -3506.2768    
f2   2   1   2   1   0   2   1      -490.56226    
f2   2   1   2   1   1   1   1      -4532.0502    
f2   2   1   2   2   0   1   1       3322.0287    
f2   2   1   2   3   0   0   1      -4802.9419    
f2   2   1   3   0   0   2   1      -689.95773    
f2   2   1   3   0   1   1   1      -5350.9428    
f2   2   1   3   0   2   0   1       11389.120    
f2   2   1   3   1   0   1   1       3298.0695    
f2   2   1   3   1   1   0   1      -10295.876    
f2   2   1   3   2   0   0   1       6888.3569    
f2   2   1   4   0   0   1   1       442.50530    
f2   2   1   4   0   1   0   1      -8685.8993    
f2   2   1   4   1   0   0   1      -8317.1556    
f2   2   2   0   0   0   4   1      -16.847937    
f2   2   2   0   0   2   2   1       339.78470    
f2   2   2   0   0   4   0   1       537.50989    
f2   2   2   0   1   0   3   1      -265.59075    
f2   2   2   0   1   1   2   1       1230.2837    
f2   2   2   0   1   2   1   1       6122.7554    
f2   2   2   0   2   0   2   1      -592.69930    
f2   2   2   0   2   1   1   1       4348.4393    
f2   2   2   0   2   2   0   1       1535.0264    
f2   2   2   0   3   0   1   1      -3244.9917    
f2   2   2   0   3   1   0   1      -4795.0647    
f2   2   2   0   4   0   0   1       1120.6899    
f2   2   2   1   0   0   3   1      -104.48307    
f2   2   2   1   0   1   2   1       626.69356    
f2   2   2   1   0   2   1   1       1722.4902    
f2   2   2   1   0   3   0   1       2817.2837    
f2   2   2   1   1   1   1   1       5304.2252    
f2   2   2   1   2   0   1   1       2280.7099    
f2   2   2   1   2   1   0   1       10067.652    
f2   2   2   1   3   0   0   1       11394.877    
f2   2   2   2   1   1   0   1       8254.4416    
f2   2   2   2   2   0   0   1      -3317.7815    
f2   2   2   3   0   0   1   1      -1047.3513    
f2   2   2   3   0   1   0   1      -3858.9567    
f2   2   2   3   1   0   0   1       12949.027    
f2   2   2   4   0   0   0   1      -5388.5726    
f2   2   3   0   0   0   3   1      -50.780057    
f2   2   3   0   0   1   2   1       103.31053    
f2   2   3   0   0   3   0   1      -1714.7716    
f2   2   3   0   1   2   0   1       5251.1256    
f2   2   3   0   2   1   0   1       4472.7884    
f2   2   3   0   3   0   0   1       2493.1945    
f2   2   3   1   0   0   2   1      -645.58602    
f2   2   3   1   0   1   1   1       726.14673    
f2   2   3   1   0   2   0   1       1943.4670    
f2   2   3   1   1   1   0   1      -3141.9976    
f2   2   3   1   2   0   0   1       7832.4431    
f2   2   3   2   1   0   0   1       2618.5317    
f2   2   3   3   0   0   0   1       1858.1225    
f2   2   4   0   0   0   2   1      -319.85227    
f2   2   4   0   0   1   1   1       1572.9030    
f2   2   4   0   0   2   0   1       1688.6566    
f2   2   4   0   1   1   0   1       2513.9844    
f2   2   4   1   0   1   0   1       2949.3187    
f2   2   4   2   0   0   0   1       3687.9287    
f2   2   5   0   0   0   1   1      -536.60881    
f2   2   5   0   1   0   0   1       1259.3011    
f3   3   0   0   0   1   4   1      -33.653926    
f3   3   0   0   0   4   1   1       499.75746    
f3   3   0   0   0   5   0   1      -5712.2151    
f3   3   0   0   1   3   1   1      -7747.7008    
f3   3   0   0   1   4   0   1       3039.7552    
f3   3   0   0   2   1   2   1       672.40492    
f3   3   0   0   2   2   1   1      -5269.8416    
f3   3   0   0   3   1   1   1       4848.9332    
f3   3   0   0   3   2   0   1      -6299.8277    
f3   3   0   0   4   0   1   1      -797.29548    
f3   3   0   0   4   1   0   1      -8878.7842    
f3   3   0   0   5   0   0   1      -9873.3037    
f3   3   0   1   0   4   0   1      -5388.1795    
f3   3   0   1   1   1   2   1       2084.4226    
f3   3   0   1   1   2   1   1      -1132.7423    
f3   3   0   1   2   1   1   1       804.49958    
f3   3   0   1   2   2   0   1      -3549.6128    
f3   3   0   1   3   0   1   1       5921.3766    
f3   3   0   1   3   1   0   1      -11449.690    
f3   3   0   1   4   0   0   1       2093.1107    
f3   3   0   2   0   2   1   1      -1389.5049    
f3   3   0   2   0   3   0   1      -6789.5033    
f3   3   0   2   1   0   2   1       314.19885    
f3   3   0   2   1   1   1   1       2251.0423    
f3   3   0   2   1   2   0   1       3258.4231    
f3   3   0   2   2   1   0   1       4133.0377    
f3   3   0   3   0   0   2   1      -153.03708    
f3   3   0   3   0   1   1   1      -636.37396    
f3   3   0   3   0   2   0   1       5330.5448    
f3   3   0   3   1   0   1   1       1279.0672    
f3   3   0   3   1   1   0   1      -12049.362    
f3   3   0   3   2   0   0   1      -3977.0721    
f3   3   0   4   0   0   1   1      -839.30047    
f3   3   0   4   0   1   0   1       2757.8889    
f3   3   1   0   0   3   1   1       2265.7741    
f3   3   1   0   0   4   0   1       1849.2319    
f3   3   1   0   1   0   3   1       245.28406    
f3   3   1   0   1   1   2   1      -487.45852    
f3   3   1   0   1   2   1   1       1162.8213    
f3   3   1   0   1   3   0   1       1256.9126    
f3   3   1   0   2   0   2   1       1322.6772    
f3   3   1   0   2   1   1   1      -1423.1778    
f3   3   1   0   2   2   0   1      -7849.8480    
f3   3   1   0   3   0   1   1       2455.4994    
f3   3   1   0   3   1   0   1       3977.9501    
f3   3   1   0   4   0   0   1      -7481.0155    
f3   3   1   1   0   3   0   1       3263.4521    
f3   3   1   1   1   0   2   1      -427.27431    
f3   3   1   1   2   0   1   1       1620.1731    
f3   3   1   1   3   0   0   1      -4939.5830    
f3   3   1   2   0   1   1   1       1025.9539    
f3   3   1   2   0   2   0   1       4591.4189    
f3   3   1   2   1   0   1   1      -5943.4108    
f3   3   1   2   1   1   0   1      -2125.3286    
f3   3   1   2   2   0   0   1      -5355.5432    
f3   3   1   3   0   1   0   1       1616.0211    
f3   3   1   3   1   0   0   1      -4682.2631    
f3   3   2   0   0   2   1   1      -1171.8669    
f3   3   2   0   1   0   2   1       968.28771    
f3   3   2   0   1   1   1   1      -3201.3735    
f3   3   2   0   1   2   0   1      -3305.5065    
f3   3   2   0   2   0   1   1       3366.0921    
f3   3   2   0   2   1   0   1       3148.5320    
f3   3   2   0   3   0   0   1       6132.6190    
f3   3   2   1   0   2   0   1       961.52180    
f3   3   2   1   1   1   0   1      -1447.4707    
f3   3   2   2   0   0   1   1       1198.4282    
f3   3   2   2   0   1   0   1      -4434.4875    
f3   3   2   2   1   0   0   1      -5716.8125    
f3   3   2   3   0   0   0   1       4703.6011    
f3   3   3   0   0   0   2   1       219.47364    
f3   3   3   0   0   2   0   1       2111.5814    
f3   3   3   0   1   0   1   1       1321.8415    
f3   3   3   0   1   1   0   1      -6170.5733    
f3   3   3   0   2   0   0   1       2238.2536    
f3   3   3   1   0   1   0   1       2737.1071    
f3   3   4   0   0   0   1   1       1199.5945    
f3   3   4   0   0   1   0   1      -1961.2680    
f3   3   4   1   0   0   0   1      -2794.8575    
f4   4   0   0   0   2   2   1       414.05257    
f4   4   0   0   0   4   0   1       4168.3983    
f4   4   0   0   1   0   3   1       143.68393    
f4   4   0   0   1   1   2   1       209.32636    
f4   4   0   0   1   2   1   1       5401.6029    
f4   4   0   0   2   0   2   1      -779.21685    
f4   4   0   0   2   1   1   1       4583.3623    
f4   4   0   0   2   2   0   1       10529.901    
f4   4   0   0   3   1   0   1       2173.9363    
f4   4   0   0   4   0   0   1       16325.962    
f4   4   0   1   0   0   3   1       43.100864    
f4   4   0   1   0   3   0   1       1665.6848    
f4   4   0   1   1   1   1   1       980.04121    
f4   4   0   1   1   2   0   1       2252.1397    
f4   4   0   1   2   0   1   1       621.31347    
f4   4   0   1   2   1   0   1       11666.541    
f4   4   0   2   1   0   1   2      -417.28456    
f4   4   0   2   1   1   0   1       2861.2503    
f4   4   0   2   2   0   0   1       3255.7059    
f4   4   0   3   0   0   1   1       686.53379    
f4   4   0   3   0   1   0   1      -5615.2826    
f4   4   0   3   1   0   0   1      -2450.8826    
f4   4   0   4   0   0   0   1       2099.5875    
f4   4   1   0   0   1   2   1      -128.63986    
f4   4   1   0   0   2   1   1      -1430.8509    
f4   4   1   0   0   3   0   1      -1989.5746    
f4   4   1   0   1   1   1   1       3294.7433    
f4   4   1   0   1   2   0   1      -2665.9250    
f4   4   1   0   2   0   1   1      -1574.8189    
f4   4   1   0   2   1   0   1       1565.4268    
f4   4   1   0   3   0   0   1      -2736.0264    
f4   4   1   1   0   1   1   1       2512.4012    
f4   4   1   1   0   2   0   1       1310.1790    
f4   4   1   1   1   1   0   1       1658.8133    
f4   4   1   2   0   0   1   1       785.39350    
f4   4   1   2   0   1   0   1      -5293.8119    
f4   4   1   2   1   0   0   1       3852.5617    
f4   4   1   3   0   0   0   1       5700.5038    
f4   4   2   0   0   1   1   1      -399.02882    
f4   4   2   0   0   2   0   1      -1626.1505    
f4   4   2   0   1   0   1   1      -1225.6005    
f4   4   2   0   1   1   0   1      -1274.6817    
f4   4   2   0   2   0   0   1      -10225.164    
f4   4   2   1   0   1   0   1      -2764.4632    
f4   4   3   0   1   0   0   1      -729.04478    
f5   5   0   0   0   1   2   1      -153.66703    
f5   5   0   0   0   3   0   1      -1591.3345    
f5   5   0   0   1   0   2   1      -686.49093    
f5   5   0   0   1   1   1   1       790.23355    
f5   5   0   0   1   2   0   1      -533.30063    
f5   5   0   0   2   0   1   1      -931.01981    
f5   5   0   0   2   1   0   1      -4051.3007    
f5   5   0   0   3   0   0   1      -2093.7069    
f5   5   0   1   0   2   0   1       2037.7981    
f5   5   0   1   1   1   0   1      -2034.2651    
f5   5   0   2   0   0   1   1      -661.49367    
f5   5   0   2   0   1   0   1       578.59617    
f5   5   0   3   0   0   0   1       1296.3551    
f5   5   1   0   0   1   1   1       889.52658    
f5   5   1   0   0   2   0   1       317.53706    
f5   5   1   0   1   0   1   1      -1271.8812    
f5   5   1   0   1   1   0   1       1563.1734    
f5   5   1   0   2   0   0   1      -5555.1197    
f5   5   1   1   0   0   1   1      -1360.6338    
f5   5   1   1   0   1   0   1      -1846.7426    
f5   5   1   2   0   0   0   1       1050.5771    
f5   5   2   0   0   0   1   1       595.06736    
f5   5   2   1   0   0   0   1      -2098.5013    
f5   5   3   0   0   0   0   1      -1325.0043    
f6   6   0   0   0   0   2   1       257.08657    
f6   6   0   0   0   1   1   1       624.68400    
f6   6   0   0   0   2   0   1      -1212.3543    
f6   6   0   0   1   0   1   1      -767.15436    
f6   6   0   0   1   1   0   1      -2239.0494    
f6   6   0   0   2   0   0   1      -2848.9619    
f6   6   0   1   0   0   1   1      -261.68434    
f6   6   0   1   0   1   0   1      -1651.4329    
f6   6   0   1   1   0   0   1       737.65641    
f6   6   1   0   0   0   1   2      -81.824772    
f6   6   1   0   1   0   0   1      -406.53797    
f6   6   1   1   0   0   0   1       2310.1703    
f6   6   2   0   0   0   0   1      -2134.1261    
f7   7   0   0   0   0   1   1      -101.26477    
f7   7   0   0   0   1   0   1       1914.2668    
f7   7   0   0   1   0   0   1       1205.3461    
f7   7   0   1   0   0   0   1      -296.64717    
f7   7   1   0   0   0   0   1      -1975.7215    
f8   8   0   0   0   0   0   1       134.48391 
end


(6d_dms_04_5.res)
DIPOLE
rank 3
nparam      559 545 768
DMS_TYPE    ABCD_R_ALPHA_RHO_TAU
coeff       powers
coords      ext-auto
order       6 6 6
ref_geom    1.60429226   1.46833127   0.96798292  110.72852741 deg 113.05478765    deg   0.00 
dstep       0.005
parameters
re_OP       0 0 0 0 0 0               0          1.60429226
re_PO       0 0 0 0 0 0               0          1.46833127
re_OH        0 0 0 0 0 0              0          0.96798292
ae_OPO      0 0 0 0 0 0               0        110.72852741
ae_POH       0 0 0 0 0 0              0        113.05478765
  dx000000   0   0   0   0   0   0   7      -2.0742234    
  dx100000   1   0   0   0   0   0   6      0.83381016    
  dx200000   2   0   0   0   0   0   5     -0.67127052    
  dx300000   3   0   0   0   0   0   4      0.35011818    
  dx400000   4   0   0   0   0   0   3      0.27614577    
  dx500000   5   0   0   0   0   0   2     -0.76633596    
  dx600000   6   0   0   0   0   0   1      0.38295881    
  dx010000   0   1   0   0   0   0   6      -3.4403848    
  dx110000   1   1   0   0   0   0   5       2.3769821    
  dx210000   2   1   0   0   0   0   4      -1.3396076    
  dx410000   4   1   0   0   0   0   2      0.35661117    
  dx020000   0   2   0   0   0   0   5       1.5411774    
  dx120000   1   2   0   0   0   0   4     -0.10830225    
  dx220000   2   2   0   0   0   0   3      -2.3222329    
  dx320000   3   2   0   0   0   0   2       1.4833976    
  dx030000   0   3   0   0   0   0   4       2.1563907    
  dx130000   1   3   0   0   0   0   3     -0.76153183    
  dx230000   2   3   0   0   0   0   2      -1.9728124    
  dx040000   0   4   0   0   0   0   3      -1.9415889    
  dx060000   0   6   0   0   0   0   1       7.8815971    
  dx001000   0   0   1   0   0   0   6     -0.87533745E-01
  dx101000   1   0   1   0   0   0   5      0.24407178    
  dx201000   2   0   1   0   0   0   4     -0.22147954    
  dx301000   3   0   1   0   0   0   3     -0.93907108E-01
  dx011000   0   1   1   0   0   0   5     -0.27689468    
  dx111000   1   1   1   0   0   0   4      0.22701072    
  dx021000   0   2   1   0   0   0   4     -0.46534666    
  dx121000   1   2   1   0   0   0   3      0.74023336    
  dx041000   0   4   1   0   0   0   2      0.95871011    
  dx002000   0   0   2   0   0   0   5      0.87646867E-01
  dx402000   4   0   2   0   0   0   1      -3.2865575    
  dx012000   0   1   2   0   0   0   4      0.51001029    
  dx112000   1   1   2   0   0   0   3      -1.2520653    
  dx022000   0   2   2   0   0   0   3     -0.44570863    
  dx032000   0   3   2   0   0   0   2      -1.3583016    
  dx003000   0   0   3   0   0   0   4      0.34340063E-01
  dx203000   2   0   3   0   0   0   2      -3.2855187    
  dx013000   0   1   3   0   0   0   3      0.54241842    
  dx004000   0   0   4   0   0   0   3     -0.63865033E-01
  dx204000   2   0   4   0   0   0   1      -6.4851920    
  dx014000   0   1   4   0   0   0   2     -0.33028718    
  dx000100   0   0   0   1   0   0   6       2.1767918    
  dx100100   1   0   0   1   0   0   5      -1.9941334    
  dx200100   2   0   0   1   0   0   4      0.84646361E-01
  dx300100   3   0   0   1   0   0   3      0.55242172    
  dx400100   4   0   0   1   0   0   2       1.0121862    
  dx500100   5   0   0   1   0   0   1      -1.6519427    
  dx010100   0   1   0   1   0   0   5      0.51256437    
  dx110100   1   1   0   1   0   0   4     -0.92573400    
  dx210100   2   1   0   1   0   0   3       2.8683757    
  dx310100   3   1   0   1   0   0   2      -1.9058295    
  dx020100   0   2   0   1   0   0   4      -2.0279220    
  dx120100   1   2   0   1   0   0   3       2.0031396    
  dx220100   2   2   0   1   0   0   2       11.650309    
  dx030100   0   3   0   1   0   0   3     -0.64523671    
  dx040100   0   4   0   1   0   0   2       3.8547057    
  dx050100   0   5   0   1   0   0   1      -4.4998722    
  dx001100   0   0   1   1   0   0   5     -0.50762610    
  dx101100   1   0   1   1   0   0   4      0.78869477    
  dx201100   2   0   1   1   0   0   3     -0.84551850    
  dx011100   0   1   1   1   0   0   4      0.58698313    
  dx111100   1   1   1   1   0   0   3      -2.8656673    
  dx002100   0   0   2   1   0   0   4     -0.52063241    
  dx102100   1   0   2   1   0   0   3       2.1161160    
  dx202100   2   0   2   1   0   0   2       2.6041232    
  dx012100   0   1   2   1   0   0   3      0.24910123    
  dx022100   0   2   2   1   0   0   2       10.834408    
  dx003100   0   0   3   1   0   0   3     -0.37844981    
  dx004100   0   0   4   1   0   0   2      0.60375551    
  dx005100   0   0   5   1   0   0   1      -1.4936172    
  dx000200   0   0   0   2   0   0   5       1.6657497    
  dx100200   1   0   0   2   0   0   4     -0.61602310    
  dx200200   2   0   0   2   0   0   3     -0.70323570    
  dx300200   3   0   0   2   0   0   2       1.7728649    
  dx010200   0   1   0   2   0   0   4       1.2391561    
  dx110200   1   1   0   2   0   0   3     -0.30959965    
  dx210200   2   1   0   2   0   0   2       1.1852070    
  dx020200   0   2   0   2   0   0   3     -0.61733280    
  dx220200   2   2   0   2   0   0   1       82.940388    
  dx001200   0   0   1   2   0   0   4      0.23554257    
  dx101200   1   0   1   2   0   0   3     -0.50353894    
  dx201200   2   0   1   2   0   0   2      -1.2559063    
  dx002200   0   0   2   2   0   0   3      0.15171988    
  dx102200   1   0   2   2   0   0   2       2.2131372    
  dx202200   2   0   2   2   0   0   1       42.234388    
  dx012200   0   1   2   2   0   0   2       3.0123645    
  dx022200   0   2   2   2   0   0   1       95.155234    
  dx003200   0   0   3   2   0   0   2     -0.52368869    
  dx004200   0   0   4   2   0   0   1      -2.0838662    
  dx000300   0   0   0   3   0   0   4      -1.0318091    
  dx100300   1   0   0   3   0   0   3      0.66890541    
  dx300300   3   0   0   3   0   0   1       1.1209638    
  dx010300   0   1   0   3   0   0   3      0.50524552    
  dx110300   1   1   0   3   0   0   2      -2.0445686    
  dx001300   0   0   1   3   0   0   3     -0.45203118    
  dx111300   1   1   1   3   0   0   1      -34.531659    
  dx002300   0   0   2   3   0   0   2     -0.37031993    
  dx000400   0   0   0   4   0   0   3     -0.28918717    
  dx100400   1   0   0   4   0   0   2     -0.10450143    
  dx010400   0   1   0   4   0   0   2     -0.64226278    
  dx110400   1   1   0   4   0   0   1       1.8137140    
  dx001400   0   0   1   4   0   0   2      0.48297662    
  dx011400   0   1   1   4   0   0   1      -1.0979341    
  dx002400   0   0   2   4   0   0   1     -0.49138057    
  dx000500   0   0   0   5   0   0   2     -0.38057493    
  dx100500   1   0   0   5   0   0   1      0.66424043    
  dx010500   0   1   0   5   0   0   1      0.79214108    
  dx000600   0   0   0   6   0   0   1     -0.59843807E-01
  dx000010   0   0   0   0   1   0   6      0.62895729E-01
  dx100010   1   0   0   0   1   0   5     -0.11178524    
  dx200010   2   0   0   0   1   0   4     -0.11274443    
  dx300010   3   0   0   0   1   0   3      0.55459378E-01
  dx010010   0   1   0   0   1   0   5      0.61519427E-01
  dx110010   1   1   0   0   1   0   4     -0.32198012    
  dx210010   2   1   0   0   1   0   3     -0.18676121    
  dx310010   3   1   0   0   1   0   2       1.6568402    
  dx020010   0   2   0   0   1   0   4      0.14724216    
  dx120010   1   2   0   0   1   0   3      0.50387709    
  dx030010   0   3   0   0   1   0   3     -0.11080490    
  dx001010   0   0   1   0   1   0   5     -0.21439084E-01
  dx101010   1   0   1   0   1   0   4      0.61924177E-01
  dx201010   2   0   1   0   1   0   3      0.13051238    
  dx011010   0   1   1   0   1   0   4     -0.25261841    
  dx021010   0   2   1   0   1   0   3     -0.33796562    
  dx002010   0   0   2   0   1   0   4      0.77092017E-01
  dx102010   1   0   2   0   1   0   3     -0.32030450    
  dx012010   0   1   2   0   1   0   3     -0.14474787    
  dx003010   0   0   3   0   1   0   3     -0.50201669E-01
  dx004010   0   0   4   0   1   0   2      0.72976967    
  dx000110   0   0   0   1   1   0   5      0.94660617E-01
  dx100110   1   0   0   1   1   0   4      0.44873055    
  dx200110   2   0   0   1   1   0   3     -0.40063315    
  dx300110   3   0   0   1   1   0   2      0.72948128    
  dx400110   4   0   0   1   1   0   1      -1.2464458    
  dx010110   0   1   0   1   1   0   4      0.91531129E-01
  dx110110   1   1   0   1   1   0   3     -0.21677503    
  dx020110   0   2   0   1   1   0   3      0.14572517    
  dx001110   0   0   1   1   1   0   4      0.17652030    
  dx201110   2   0   1   1   1   0   2      -2.5363477    
  dx002110   0   0   2   1   1   0   3      0.14557327    
  dx003110   0   0   3   1   1   0   2     -0.42597298    
  dx000210   0   0   0   2   1   0   4     -0.24419392E-01
  dx100210   1   0   0   2   1   0   3      0.10680115    
  dx200210   2   0   0   2   1   0   2     -0.98733909    
  dx010210   0   1   0   2   1   0   3     -0.12362009    
  dx110210   1   1   0   2   1   0   2      -2.8301395    
  dx210210   2   1   0   2   1   0   1      -10.995633    
  dx020210   0   2   0   2   1   0   2     -0.51464700    
  dx001210   0   0   1   2   1   0   3      0.12091381    
  dx101210   1   0   1   2   1   0   2      -2.1859404    
  dx201210   2   0   1   2   1   0   1      -11.023023    
  dx011210   0   1   1   2   1   0   2      -2.1491018    
  dx111210   1   1   1   2   1   0   1      -56.246494    
  dx002210   0   0   2   2   1   0   2       1.0689210    
  dx000310   0   0   0   3   1   0   3      0.12689763    
  dx100310   1   0   0   3   1   0   2      0.39173662    
  dx200310   2   0   0   3   1   0   1      -2.1421352    
  dx010310   0   1   0   3   1   0   2      0.21826588    
  dx110310   1   1   0   3   1   0   1      -6.7965564    
  dx101310   1   0   1   3   1   0   1      -4.8415832    
  dx002310   0   0   2   3   1   0   1      -2.2926632    
  dx000410   0   0   0   4   1   0   2      0.72384761E-01
  dx001410   0   0   1   4   1   0   1      0.37890998    
  dx000510   0   0   0   5   1   0   1     -0.21694979    
  dx000020   0   0   0   0   2   0   5     -0.61578296E-01
  dx100020   1   0   0   0   2   0   4      0.19922965    
  dx200020   2   0   0   0   2   0   3      0.17552608E-01
  dx010020   0   1   0   0   2   0   4     -0.12724265    
  dx110020   1   1   0   0   2   0   3      0.40452327    
  dx210020   2   1   0   0   2   0   2     -0.30050250    
  dx020020   0   2   0   0   2   0   3     -0.64896287    
  dx220020   2   2   0   0   2   0   1      -9.6249369    
  dx001020   0   0   1   0   2   0   4     -0.11693413    
  dx101020   1   0   1   0   2   0   3     -0.66536840E-01
  dx201020   2   0   1   0   2   0   2       1.6891665    
  dx011020   0   1   1   0   2   0   3     -0.49984670    
  dx111020   1   1   1   0   2   0   2      -1.0312462    
  dx102020   1   0   2   0   2   0   2       1.5405790    
  dx202020   2   0   2   0   2   0   1      -9.2882315    
  dx022020   0   2   2   0   2   0   1      -13.867743    
  dx004020   0   0   4   0   2   0   1      -2.4955324    
  dx000120   0   0   0   1   2   0   4     -0.22562831    
  dx100120   1   0   0   1   2   0   3     -0.51348124    
  dx300120   3   0   0   1   2   0   1       1.3319094    
  dx010120   0   1   0   1   2   0   3      0.21822794    
  dx110120   1   1   0   1   2   0   2      -1.9656869    
  dx020120   0   2   0   1   2   0   2      0.78296430    
  dx001120   0   0   1   1   2   0   3      0.31500636E-01
  dx101120   1   0   1   1   2   0   2      -1.6541137    
  dx111120   1   1   1   1   2   0   1      -76.989315    
  dx002120   0   0   2   1   2   0   2      0.72384776    
  dx000220   0   0   0   2   2   0   3     -0.14069375    
  dx100220   1   0   0   2   2   0   2      0.24706165    
  dx200220   2   0   0   2   2   0   1       2.3353522    
  dx001220   0   0   1   2   2   0   2      0.22079981    
  dx000320   0   0   0   3   2   0   2     -0.77036571E-01
  dx100320   1   0   0   3   2   0   1      0.88997791    
  dx001320   0   0   1   3   2   0   1      -1.0453425    
  dx000030   0   0   0   0   3   0   4     -0.50090895E-02
  dx100030   1   0   0   0   3   0   3      0.80620447E-02
  dx200030   2   0   0   0   3   0   2     -0.22064148    
  dx300030   3   0   0   0   3   0   1     -0.52846013    
  dx010030   0   1   0   0   3   0   3      0.63787455E-02
  dx020030   0   2   0   0   3   0   2     -0.74008093    
  dx001030   0   0   1   0   3   0   3      0.28823377E-01
  dx101030   1   0   1   0   3   0   2     -0.70087488    
  dx201030   2   0   1   0   3   0   1       1.1219418    
  dx011030   0   1   1   0   3   0   2     -0.42995502    
  dx002030   0   0   2   0   3   0   2      0.44072876E-01
  dx102030   1   0   2   0   3   0   1      -1.2799598    
  dx000130   0   0   0   1   3   0   3     -0.22631515    
  dx100130   1   0   0   1   3   0   2      0.64716721E-01
  dx110130   1   1   0   1   3   0   1       1.7037654    
  dx001130   0   0   1   1   3   0   2     -0.29497197    
  dx101130   1   0   1   1   3   0   1       3.4158764    
  dx011130   0   1   1   1   3   0   1       1.6420937    
  dx002130   0   0   2   1   3   0   1     -0.87429982    
  dx000230   0   0   0   2   3   0   2     -0.62798210E-01
  dx100230   1   0   0   2   3   0   1     -0.90793344    
  dx001230   0   0   1   2   3   0   1      0.63154476    
  dx000330   0   0   0   3   3   0   1     -0.20842128    
  dx000040   0   0   0   0   4   0   3      0.51680120E-01
  dx100040   1   0   0   0   4   0   2     -0.20258510    
  dx200040   2   0   0   0   4   0   1     -0.12600505    
  dx010040   0   1   0   0   4   0   2      0.11263337    
  dx020040   0   2   0   0   4   0   1     -0.14679085    
  dx001040   0   0   1   0   4   0   2      0.15617396    
  dx101040   1   0   1   0   4   0   1     -0.54176913    
  dx002040   0   0   2   0   4   0   1     -0.34975431    
  dx000140   0   0   0   1   4   0   2      0.24966023E-01
  dx100140   1   0   0   1   4   0   1      0.64311545    
  dx001140   0   0   1   1   4   0   1     -0.28019519    
  dx000240   0   0   0   2   4   0   1      0.10103174    
  dx000050   0   0   0   0   5   0   2      0.12616163E-01
  dx100050   1   0   0   0   5   0   1     -0.85273365E-01
  dx010050   0   1   0   0   5   0   1      0.43170360E-01
  dx001050   0   0   1   0   5   0   1      0.99664951E-01
  dx000150   0   0   0   1   5   0   1      0.54137952E-01
  dx000001   0   0   0   0   0   1   6       1.3960475    
  dx100001   1   0   0   0   0   1   5     -0.26112511    
  dx200001   2   0   0   0   0   1   4     -0.22382962    
  dx300001   3   0   0   0   0   1   3      0.28204619    
  dx400001   4   0   0   0   0   1   2      0.28029691E-01
  dx010001   0   1   0   0   0   1   5     -0.47031054E-01
  dx110001   1   1   0   0   0   1   4      0.37352185E-01
  dx210001   2   1   0   0   0   1   3      0.19587493    
  dx020001   0   2   0   0   0   1   4     -0.99412249E-01
  dx120001   1   2   0   0   0   1   3      0.70315647E-01
  dx220001   2   2   0   0   0   1   2       1.2871727    
  dx030001   0   3   0   0   0   1   3      0.11452531    
  dx130001   1   3   0   0   0   1   2      0.33768890    
  dx040001   0   4   0   0   0   1   2      0.47045819    
  dx050001   0   5   0   0   0   1   1      -1.0657186    
  dx001001   0   0   1   0   0   1   5       1.1106952    
  dx101001   1   0   1   0   0   1   4      -1.4019332    
  dx201001   2   0   1   0   0   1   3     -0.38339612    
  dx301001   3   0   1   0   0   1   2       1.6582635    
  dx401001   4   0   1   0   0   1   1     -0.60842323    
  dx011001   0   1   1   0   0   1   4      0.47359427    
  dx111001   1   1   1   0   0   1   3     -0.13551680    
  dx211001   2   1   1   0   0   1   2      0.49414425    
  dx021001   0   2   1   0   0   1   3     -0.24041511    
  dx002001   0   0   2   0   0   1   4     -0.47325010E-01
  dx102001   1   0   2   0   0   1   3     -0.44593743    
  dx202001   2   0   2   0   0   1   2      -1.1002748    
  dx302001   3   0   2   0   0   1   1       3.8426589    
  dx012001   0   1   2   0   0   1   3      0.35012712    
  dx022001   0   2   2   0   0   1   2      0.48890940    
  dx003001   0   0   3   0   0   1   3      -1.0407353    
  dx103001   1   0   3   0   0   1   2       1.5493512    
  dx004001   0   0   4   0   0   1   2     -0.17191554    
  dx104001   1   0   4   0   0   1   1       1.3355242    
  dx000101   0   0   0   1   0   1   5      0.85706116E-01
  dx100101   1   0   0   1   0   1   4     -0.18889273    
  dx200101   2   0   0   1   0   1   3      0.11188397E-01
  dx300101   3   0   0   1   0   1   2      0.13731848    
  dx010101   0   1   0   1   0   1   4      0.20990555    
  dx110101   1   1   0   1   0   1   3     -0.36514936    
  dx020101   0   2   0   1   0   1   3      0.94519098E-01
  dx040101   0   4   0   1   0   1   1     -0.50292698    
  dx001101   0   0   1   1   0   1   4      0.29039219    
  dx101101   1   0   1   1   0   1   3     -0.42142372    
  dx301101   3   0   1   1   0   1   1       1.9980686    
  dx011101   0   1   1   1   0   1   3      0.89485800E-01
  dx111101   1   1   1   1   0   1   2       2.9253783    
  dx002101   0   0   2   1   0   1   3      0.24142426    
  dx003101   0   0   3   1   0   1   2     -0.13689870    
  dx103101   1   0   3   1   0   1   1       5.8742469    
  dx000201   0   0   0   2   0   1   4     -0.18270488    
  dx100201   1   0   0   2   0   1   3      0.50335628    
  dx200201   2   0   0   2   0   1   2     -0.46424087    
  dx020201   0   2   0   2   0   1   2      0.77241016    
  dx001201   0   0   1   2   0   1   3     -0.47807579    
  dx101201   1   0   1   2   0   1   2       1.6110014    
  dx011201   0   1   1   2   0   1   2      0.18541830    
  dx111201   1   1   1   2   0   1   1       5.4983174    
  dx002201   0   0   2   2   0   1   2     -0.36458851    
  dx000301   0   0   0   3   0   1   3      0.10978880    
  dx100301   1   0   0   3   0   1   2     -0.74480433E-01
  dx001301   0   0   1   3   0   1   2      0.33679036    
  dx101301   1   0   1   3   0   1   1      0.83091408    
  dx002301   0   0   2   3   0   1   1      0.43560889    
  dx000401   0   0   0   4   0   1   2     -0.78642931E-02
  dx100401   1   0   0   4   0   1   1      0.32903356    
  dx001401   0   0   1   4   0   1   1      0.14513360    
  dx000501   0   0   0   5   0   1   1      0.54847358E-01
  dx000011   0   0   0   0   1   1   5      0.17697209    
  dx100011   1   0   0   0   1   1   4      0.31271007E-01
  dx200011   2   0   0   0   1   1   3      0.41899579    
  dx010011   0   1   0   0   1   1   4     -0.23682577E-01
  dx110011   1   1   0   0   1   1   3      0.89090513E-01
  dx310011   3   1   0   0   1   1   1      -1.9904136    
  dx020011   0   2   0   0   1   1   3     -0.26368069    
  dx030011   0   3   0   0   1   1   2     -0.20752882    
  dx001011   0   0   1   0   1   1   4      0.15384588    
  dx101011   1   0   1   0   1   1   3     -0.62273815    
  dx011011   0   1   1   0   1   1   3      0.17648052E-01
  dx111011   1   1   1   0   1   1   2      0.84753754    
  dx002011   0   0   2   0   1   1   3      0.36505912    
  dx102011   1   0   2   0   1   1   2     -0.55457246    
  dx003011   0   0   3   0   1   1   2      0.54839081    
  dx004011   0   0   4   0   1   1   1      -1.2024476    
  dx000111   0   0   0   1   1   1   4      0.94669940E-01
  dx100111   1   0   0   1   1   1   3     -0.71611457E-01
  dx010111   0   1   0   1   1   1   3      0.15511999    
  dx020111   0   2   0   1   1   1   2     -0.21073965    
  dx001111   0   0   1   1   1   1   3      0.76235799E-01
  dx011111   0   1   1   1   1   1   2      0.38677360    
  dx000211   0   0   0   2   1   1   3     -0.23101458    
  dx200211   2   0   0   2   1   1   1       1.2071246    
  dx110211   1   1   0   2   1   1   1       3.2259528    
  dx001211   0   0   1   2   1   1   2      0.39700177    
  dx000311   0   0   0   3   1   1   2     -0.27659240    
  dx100311   1   0   0   3   1   1   1      0.23438304    
  dx001311   0   0   1   3   1   1   1     -0.90054705    
  dx000411   0   0   0   4   1   1   1     -0.19029627    
  dx000021   0   0   0   0   2   1   4     -0.97454681    
  dx100021   1   0   0   0   2   1   3      0.32745374    
  dx200021   2   0   0   0   2   1   2      0.57504499    
  dx300021   3   0   0   0   2   1   1      -1.0626198    
  dx010021   0   1   0   0   2   1   3     -0.48754105E-01
  dx110021   1   1   0   0   2   1   2      0.34023380    
  dx020021   0   2   0   0   2   1   2      0.35885015    
  dx001021   0   0   1   0   2   1   3     -0.70639576    
  dx101021   1   0   1   0   2   1   2      0.30950093    
  dx011021   0   1   1   0   2   1   2     -0.55160816    
  dx002021   0   0   2   0   2   1   2      0.79808040    
  dx102021   1   0   2   0   2   1   1      -3.1396067    
  dx003021   0   0   3   0   2   1   1       1.2419593    
  dx000121   0   0   0   1   2   1   3     -0.69884202E-01
  dx100121   1   0   0   1   2   1   2      0.49200454    
  dx010121   0   1   0   1   2   1   2      0.15156684    
  dx110121   1   1   0   1   2   1   1       1.7243487    
  dx001121   0   0   1   1   2   1   2     -0.54908794    
  dx101121   1   0   1   1   2   1   1       2.1483685    
  dx002121   0   0   2   1   2   1   1      -1.3924475    
  dx000221   0   0   0   2   2   1   2      0.14103921    
  dx100221   1   0   0   2   2   1   1      -1.3852808    
  dx001221   0   0   1   2   2   1   1       1.2657333    
  dx000321   0   0   0   3   2   1   1     -0.54154306    
  dx000031   0   0   0   0   3   1   3      0.62336881E-01
  dx100031   1   0   0   0   3   1   2     -0.24892830E-01
  dx200031   2   0   0   0   3   1   1      0.21897495    
  dx010031   0   1   0   0   3   1   2     -0.13947943    
  dx110031   1   1   0   0   3   1   1      0.49850540    
  dx020031   0   2   0   0   3   1   1      0.65537682    
  dx001031   0   0   1   0   3   1   2      0.33708844E-01
  dx101031   1   0   1   0   3   1   1     -0.38520806    
  dx000131   0   0   0   1   3   1   2     -0.14540058    
  dx100131   1   0   0   1   3   1   1      0.72912805    
  dx010131   0   1   0   1   3   1   1      0.25397502    
  dx001131   0   0   1   1   3   1   1     -0.51745085    
  dx000231   0   0   0   2   3   1   1      0.36647515    
  dx000041   0   0   0   0   4   1   2      0.12699593    
  dx100041   1   0   0   0   4   1   1     -0.11598486    
  dx010041   0   1   0   0   4   1   1     -0.74033569E-01
  dx001041   0   0   1   0   4   1   1      0.82597875E-01
  dx000141   0   0   0   1   4   1   1     -0.69732404E-01
  dx000002   0   0   0   0   0   2   5     -0.37498201E-01
  dx100002   1   0   0   0   0   2   4     -0.84495426E-02
  dx200002   2   0   0   0   0   2   3      0.78509426E-01
  dx300002   3   0   0   0   0   2   2     -0.75113096E-01
  dx010002   0   1   0   0   0   2   4     -0.13891967    
  dx110002   1   1   0   0   0   2   3      0.52864565E-01
  dx210002   2   1   0   0   0   2   2      0.11064355    
  dx310002   3   1   0   0   0   2   1     -0.16162129    
  dx020002   0   2   0   0   0   2   3     -0.81105687E-01
  dx120002   1   2   0   0   0   2   2      0.13769967    
  dx220002   2   2   0   0   0   2   1     -0.97977181    
  dx130002   1   3   0   0   0   2   1      0.39831753    
  dx040002   0   4   0   0   0   2   1      0.33427119    
  dx001002   0   0   1   0   0   2   4      0.84761498E-02
  dx101002   1   0   1   0   0   2   3      0.27737884E-01
  dx201002   2   0   1   0   0   2   2     -0.26464815E-01
  dx301002   3   0   1   0   0   2   1     -0.15258203    
  dx011002   0   1   1   0   0   2   3      0.34333668E-01
  dx111002   1   1   1   0   0   2   2     -0.54033599E-01
  dx021002   0   2   1   0   0   2   2     -0.89276236E-01
  dx031002   0   3   1   0   0   2   1     -0.31698325    
  dx002002   0   0   2   0   0   2   3     -0.24224256E-01
  dx102002   1   0   2   0   0   2   2      0.17351229    
  dx202002   2   0   2   0   0   2   1     -0.92123550    
  dx012002   0   1   2   0   0   2   2      0.38664708E-01
  dx003002   0   0   3   0   0   2   2     -0.33757668E-01
  dx004002   0   0   4   0   0   2   1     -0.28431588E-01
  dx000102   0   0   0   1   0   2   4      0.13726343    
  dx100102   1   0   0   1   0   2   3     -0.49404381E-02
  dx200102   2   0   0   1   0   2   2     -0.27613332    
  dx300102   3   0   0   1   0   2   1      0.29691631    
  dx010102   0   1   0   1   0   2   3      0.12279928    
  dx110102   1   1   0   1   0   2   2     -0.11960783    
  dx020102   0   2   0   1   0   2   2     -0.60140378E-01
  dx120102   1   2   0   1   0   2   1     -0.63770123    
  dx030102   0   3   0   1   0   2   1     -0.32735384    
  dx001102   0   0   1   1   0   2   3     -0.24324542    
  dx101102   1   0   1   1   0   2   2      0.65046519    
  dx201102   2   0   1   1   0   2   1     -0.44058009    
  dx011102   0   1   1   1   0   2   2      0.25032442    
  dx111102   1   1   1   1   0   2   1      -1.4421839    
  dx021102   0   2   1   1   0   2   1      0.90722024    
  dx002102   0   0   2   1   0   2   2     -0.30597908    
  dx102102   1   0   2   1   0   2   1      0.43448059    
  dx000202   0   0   0   2   0   2   3      0.59508848E-02
  dx100202   1   0   0   2   0   2   2     -0.86628108E-01
  dx010202   0   1   0   2   0   2   2     -0.45497446E-01
  dx020202   0   2   0   2   0   2   1     -0.22430125    
  dx001202   0   0   1   2   0   2   2      0.19651167    
  dx101202   1   0   1   2   0   2   1     -0.58055529    
  dx011202   0   1   1   2   0   2   1     -0.33679298    
  dx100302   1   0   0   3   0   2   1      0.40114057E-01
  dx001302   0   0   1   3   0   2   1     -0.23928541    
  dx000402   0   0   0   4   0   2   1     -0.32582210E-02
  dx000012   0   0   0   0   1   2   4     -0.11217852E-01
  dx100012   1   0   0   0   1   2   3     -0.58169791E-01
  dx200012   2   0   0   0   1   2   2      0.19786293    
  dx300012   3   0   0   0   1   2   1     -0.25436597    
  dx010012   0   1   0   0   1   2   3     -0.11615863    
  dx110012   1   1   0   0   1   2   2      0.10913125    
  dx210012   2   1   0   0   1   2   1      0.45732502    
  dx020012   0   2   0   0   1   2   2     -0.90681505E-01
  dx120012   1   2   0   0   1   2   1      0.58361758    
  dx030012   0   3   0   0   1   2   1      0.23915914    
  dx001012   0   0   1   0   1   2   3      0.10096144    
  dx101012   1   0   1   0   1   2   2     -0.22710320    
  dx201012   2   0   1   0   1   2   1      0.60758239    
  dx011012   0   1   1   0   1   2   2      0.85862613E-01
  dx002012   0   0   2   0   1   2   2      0.10115934    
  dx102012   1   0   2   0   1   2   1      0.29738652    
  dx012012   0   1   2   0   1   2   1      0.78853404    
  dx003012   0   0   3   0   1   2   1     -0.75082938E-01
  dx000112   0   0   0   1   1   2   3      0.11621781    
  dx100112   1   0   0   1   1   2   2      0.48099465E-01
  dx200112   2   0   0   1   1   2   1     -0.29372070    
  dx010112   0   1   0   1   1   2   2      0.97167031E-01
  dx020112   0   2   0   1   1   2   1      0.40299429    
  dx001112   0   0   1   1   1   2   2     -0.36966835    
  dx101112   1   0   1   1   1   2   1      0.39293914    
  dx000212   0   0   0   2   1   2   2      0.10604000E-01
  dx100212   1   0   0   2   1   2   1     -0.25226204    
  dx001212   0   0   1   2   1   2   1      0.37842282    
  dx000312   0   0   0   3   1   2   1     -0.68505304E-01
  dx000022   0   0   0   0   2   2   3      0.62817194E-01
  dx100022   1   0   0   0   2   2   2     -0.16005917    
  dx200022   2   0   0   0   2   2   1      0.24780961    
  dx010022   0   1   0   0   2   2   2      0.64003372E-01
  dx020022   0   2   0   0   2   2   1      0.86242814E-01
  dx001022   0   0   1   0   2   2   2      0.15419861    
  dx101022   1   0   1   0   2   2   1     -0.56553440    
  dx011022   0   1   1   0   2   2   1     -0.80510181E-01
  dx002022   0   0   2   0   2   2   1      0.26706153    
  dx000122   0   0   0   1   2   2   2     -0.15463354    
  dx100122   1   0   0   1   2   2   1      0.16895003    
  dx010122   0   1   0   1   2   2   1     -0.39194135E-01
  dx001122   0   0   1   1   2   2   1     -0.28144687    
  dx000222   0   0   0   2   2   2   1      0.12935556    
  dx000032   0   0   0   0   3   2   2      0.37377869E-01
  dx100032   1   0   0   0   3   2   1     -0.12429879    
  dx010032   0   1   0   0   3   2   1      0.34626314E-01
  dx001032   0   0   1   0   3   2   1      0.78402092E-01
  dx000132   0   0   0   1   3   2   1     -0.15373314    
  dx000042   0   0   0   0   4   2   1     -0.89602747E-03
  dx000003   0   0   0   0   0   3   4     -0.31604982E-02
  dx100003   1   0   0   0   0   3   3      0.40538011E-02
  dx200003   2   0   0   0   0   3   2      0.13526699E-01
  dx300003   3   0   0   0   0   3   1     -0.23386580E-01
  dx010003   0   1   0   0   0   3   3      0.37879473E-02
  dx110003   1   1   0   0   0   3   2     -0.33196693E-02
  dx020003   0   2   0   0   0   3   2     -0.57432251E-02
  dx120003   1   2   0   0   0   3   1      0.43364993E-01
  dx030003   0   3   0   0   0   3   1     -0.19015087E-01
  dx001003   0   0   1   0   0   3   3      0.13672316E-01
  dx101003   1   0   1   0   0   3   2      0.26889489E-01
  dx011003   0   1   1   0   0   3   2     -0.68302772E-02
  dx021003   0   2   1   0   0   3   1     -0.30035385E-01
  dx002003   0   0   2   0   0   3   2     -0.17754152E-01
  dx102003   1   0   2   0   0   3   1      0.78667390E-01
  dx012003   0   1   2   0   0   3   1      0.44121384E-01
  dx003003   0   0   3   0   0   3   1      0.11967328E-01
  dx000103   0   0   0   1   0   3   3      0.81053723E-02
  dx100103   1   0   0   1   0   3   2     -0.13533965E-01
  dx200103   2   0   0   1   0   3   1      0.15257060E-01
  dx010103   0   1   0   1   0   3   2      0.97299863E-02
  dx110103   1   1   0   1   0   3   1      0.29653804E-01
  dx020103   0   2   0   1   0   3   1      0.47030416E-01
  dx001103   0   0   1   1   0   3   2      0.54898847E-02
  dx101103   1   0   1   1   0   3   1     -0.70377930E-01
  dx000203   0   0   0   2   0   3   2     -0.10740701E-01
  dx100203   1   0   0   2   0   3   1     -0.21340095E-01
  dx010203   0   1   0   2   0   3   1     -0.29782344E-01
  dx001203   0   0   1   2   0   3   1     -0.88729832E-02
  dx000303   0   0   0   3   0   3   1     -0.40008274E-02
  dx000013   0   0   0   0   1   3   3      0.24933842E-02
  dx100013   1   0   0   0   1   3   2     -0.11542726E-01
  dx200013   2   0   0   0   1   3   1      0.44180907E-01
  dx010013   0   1   0   0   1   3   2     -0.14784335E-01
  dx020013   0   2   0   0   1   3   1      0.32825345E-01
  dx001013   0   0   1   0   1   3   2      0.50129458E-01
  dx101013   1   0   1   0   1   3   1     -0.20804448E-01
  dx011013   0   1   1   0   1   3   1     -0.62492467E-01
  dx002013   0   0   2   0   1   3   1      0.55591269E-01
  dx000113   0   0   0   1   1   3   2     -0.19962981E-02
  dx100113   1   0   0   1   1   3   1      0.19315364E-01
  dx010113   0   1   0   1   1   3   1      0.11320189E-01
  dx001113   0   0   1   1   1   3   1     -0.46045237E-01
  dx000213   0   0   0   2   1   3   1      0.51597687E-01
  dx000023   0   0   0   0   2   3   2      0.11318162E-01
  dx100023   1   0   0   0   2   3   1     -0.28682596E-01
  dx010023   0   1   0   0   2   3   1     -0.29474713E-01
  dx001023   0   0   1   0   2   3   1      0.40285823E-01
  dx000123   0   0   0   1   2   3   1     -0.28009548E-01
  dx000033   0   0   0   0   3   3   1      0.51909172E-02
  dx000004   0   0   0   0   0   4   3      0.10426039E-02
  dx100004   1   0   0   0   0   4   2     -0.37712223E-03
  dx010004   0   1   0   0   0   4   2      0.32448658E-02
  dx001004   0   0   1   0   0   4   2      0.18272857E-02
  dx101004   1   0   1   0   0   4   1     -0.63522995E-02
  dx002004   0   0   2   0   0   4   1      0.77556232E-02
  dx000104   0   0   0   1   0   4   2     -0.56519177E-02
  dx100104   1   0   0   1   0   4   1      0.75955528E-02
  dx010104   0   1   0   1   0   4   1     -0.33317333E-02
  dx001104   0   0   1   1   0   4   1     -0.28766898E-02
  dx000204   0   0   0   2   0   4   1      0.48561358E-02
  dx000014   0   0   0   0   1   4   2      0.13574675E-02
  dx100014   1   0   0   0   1   4   1     -0.22002478E-02
  dx010014   0   1   0   0   1   4   1      0.30643468E-02
  dx001014   0   0   1   0   1   4   1      0.90317352E-03
  dx000114   0   0   0   1   1   4   1     -0.12320662E-01
  dx000024   0   0   0   0   2   4   1     -0.12015140E-03
  dx000005   0   0   0   0   0   5   2      0.13019581E-03
  dx100005   1   0   0   0   0   5   1      0.76286700E-04
  dx010005   0   1   0   0   0   5   1     -0.27004444E-03
  dx001005   0   0   1   0   0   5   1     -0.44440330E-03
  dx000105   0   0   0   1   0   5   1     -0.58141630E-03
  dx000006   0   0   0   0   0   6   1     -0.59541755E-04
re_OP       0 0 0 0 0 0               0          1.60429226
re_PO       0 0 0 0 0 0               0          1.46833127
re_OH        0 0 0 0 0 0              0          0.96798292
ae_OPO      0 0 0 0 0 0               0        110.72852741
ae_POH       0 0 0 0 0 0              0        113.05478765
  dy000000   0   0   0   0   0   0   7       1.4516321    
  dy100000   1   0   0   0   0   0   6     -0.28759140    
  dy200000   2   0   0   0   0   0   5     -0.24612954    
  dy300000   3   0   0   0   0   0   4      0.25293826    
  dy600000   6   0   0   0   0   0   1     -0.49301711E-01
  dy010000   0   1   0   0   0   0   6      0.70917300E-01
  dy110000   1   1   0   0   0   0   5     -0.67263415E-01
  dy210000   2   1   0   0   0   0   4      0.23042999    
  dy310000   3   1   0   0   0   0   3     -0.19009753    
  dy510000   5   1   0   0   0   0   1      0.70059639E-01
  dy020000   0   2   0   0   0   0   5     -0.93011676E-01
  dy120000   1   2   0   0   0   0   4      0.57363551E-01
  dy320000   3   2   0   0   0   0   2      0.84511928    
  dy030000   0   3   0   0   0   0   4      0.22440322E-01
  dy130000   1   3   0   0   0   0   3     -0.52583030    
  dy330000   3   3   0   0   0   0   1       11.421468    
  dy040000   0   4   0   0   0   0   3      0.27540568    
  dy140000   1   4   0   0   0   0   2       1.7779082    
  dy050000   0   5   0   0   0   0   2     -0.42104931    
  dy001000   0   0   1   0   0   0   6       1.3321439    
  dy101000   1   0   1   0   0   0   5      -1.9336160    
  dy201000   2   0   1   0   0   0   4      0.81487864E-01
  dy301000   3   0   1   0   0   0   3       1.2823353    
  dy401000   4   0   1   0   0   0   2     -0.62305244    
  dy011000   0   1   1   0   0   0   5      0.35480021    
  dy111000   1   1   1   0   0   0   4      0.31128740E-01
  dy311000   3   1   1   0   0   0   2     -0.96010981    
  dy021000   0   2   1   0   0   0   4     -0.32623604    
  dy121000   1   2   1   0   0   0   3     -0.29731835    
  dy321000   3   2   1   0   0   0   1       29.142385    
  dy031000   0   3   1   0   0   0   3     -0.55158436    
  dy231000   2   3   1   0   0   0   1       18.716228    
  dy051000   0   5   1   0   0   0   1       5.4489350    
  dy002000   0   0   2   0   0   0   5      0.48867417E-01
  dy102000   1   0   2   0   0   0   4     -0.72028566    
  dy202000   2   0   2   0   0   0   3      -1.3926269    
  dy302000   3   0   2   0   0   0   2       1.8421240    
  dy012000   0   1   2   0   0   0   4      0.28513427    
  dy122000   1   2   2   0   0   0   2      0.66034879    
  dy222000   2   2   2   0   0   0   1      -13.904385    
  dy003000   0   0   3   0   0   0   4      -1.0651508    
  dy103000   1   0   3   0   0   0   3      0.76608397    
  dy303000   3   0   3   0   0   0   1       21.091472    
  dy013000   0   1   3   0   0   0   3     -0.26212610    
  dy213000   2   1   3   0   0   0   1       13.959583    
  dy004000   0   0   4   0   0   0   3     -0.20916283    
  dy104000   1   0   4   0   0   0   2       1.6001470    
  dy204000   2   0   4   0   0   0   1      -14.922280    
  dy024000   0   2   4   0   0   0   1      -2.9929238    
  dy005000   0   0   5   0   0   0   2     -0.38399344E-01
  dy015000   0   1   5   0   0   0   1     -0.12052608    
  dy000100   0   0   0   1   0   0   6      0.87416769E-01
  dy100100   1   0   0   1   0   0   5      0.14279550    
  dy200100   2   0   0   1   0   0   4     -0.38834165    
  dy300100   3   0   0   1   0   0   3      0.29294043    
  dy500100   5   0   0   1   0   0   1     -0.44040145    
  dy010100   0   1   0   1   0   0   5      0.25522010E-01
  dy110100   1   1   0   1   0   0   4     -0.25283821    
  dy210100   2   1   0   1   0   0   3      0.30682445    
  dy020100   0   2   0   1   0   0   4     -0.23814589E-01
  dy220100   2   2   0   1   0   0   2      -3.1729652    
  dy320100   3   2   0   1   0   0   1       8.2344708    
  dy030100   0   3   0   1   0   0   3     -0.19888071    
  dy050100   0   5   0   1   0   0   1       2.1424782    
  dy001100   0   0   1   1   0   0   5      0.20748477    
  dy101100   1   0   1   1   0   0   4     -0.29858249E-01
  dy201100   2   0   1   1   0   0   3      -1.2202067    
  dy401100   4   0   1   1   0   0   1       3.3358612    
  dy011100   0   1   1   1   0   0   4     -0.30903108    
  dy111100   1   1   1   1   0   0   3       2.5082833    
  dy211100   2   1   1   1   0   0   2      -11.160421    
  dy121100   1   2   1   1   0   0   2      -14.757423    
  dy002100   0   0   2   1   0   0   4      0.13366040    
  dy202100   2   0   2   1   0   0   2      -7.1695467    
  dy302100   3   0   2   1   0   0   1       14.987760    
  dy112100   1   1   2   1   0   0   2       10.760804    
  dy203100   2   0   3   1   0   0   1      -27.256042    
  dy113100   1   1   3   1   0   0   1      -115.14997    
  dy104100   1   0   4   1   0   0   1       6.8443672    
  dy005100   0   0   5   1   0   0   1     -0.71782969    
  dy000200   0   0   0   2   0   0   5     -0.11377885    
  dy100200   1   0   0   2   0   0   4      0.29611720    
  dy200200   2   0   0   2   0   0   3     -0.48335597    
  dy300200   3   0   0   2   0   0   2      0.46914770    
  dy010200   0   1   0   2   0   0   4      0.77831394E-01
  dy110200   1   1   0   2   0   0   3     -0.31631474    
  dy310200   3   1   0   2   0   0   1       4.5735208    
  dy120200   1   2   0   2   0   0   2       2.1480962    
  dy220200   2   2   0   2   0   0   1       13.753499    
  dy001200   0   0   1   2   0   0   4     -0.29806438    
  dy101200   1   0   1   2   0   0   3      0.69458525    
  dy011200   0   1   1   2   0   0   3      0.36191178    
  dy121200   1   2   1   2   0   0   1      -79.543618    
  dy002200   0   0   2   2   0   0   3     -0.58758119    
  dy102200   1   0   2   2   0   0   2       1.8292194    
  dy112200   1   1   2   2   0   0   1      -41.054646    
  dy103200   1   0   3   2   0   0   1       4.6283819    
  dy004200   0   0   4   2   0   0   1     -0.83403081    
  dy000300   0   0   0   3   0   0   4      0.52772590E-01
  dy100300   1   0   0   3   0   0   3      0.65929237E-01
  dy200300   2   0   0   3   0   0   2     -0.21155551    
  dy210300   2   1   0   3   0   0   1      -2.7985106    
  dy030300   0   3   0   3   0   0   1      -2.2933623    
  dy001300   0   0   1   3   0   0   3      0.92239920E-01
  dy021300   0   2   1   3   0   0   1      -3.1292587    
  dy012300   0   1   2   3   0   0   1      -5.8838475    
  dy003300   0   0   3   3   0   0   1      -1.2626465    
  dy000400   0   0   0   4   0   0   3     -0.23336654E-01
  dy100400   1   0   0   4   0   0   2      0.22456784    
  dy020400   0   2   0   4   0   0   1       1.3379697    
  dy002400   0   0   2   4   0   0   1       1.2439075    
  dy000500   0   0   0   5   0   0   2      0.48987107E-01
  dy100500   1   0   0   5   0   0   1     -0.15508706    
  dy001500   0   0   1   5   0   0   1     -0.36258125E-01
  dy000600   0   0   0   6   0   0   1     -0.27120185E-01
  dy000010   0   0   0   0   1   0   6     -0.34187444E-01
  dy100010   1   0   0   0   1   0   5      0.80409092E-01
  dy200010   2   0   0   0   1   0   4      0.77703058    
  dy400010   4   0   0   0   1   0   2     -0.68841693    
  dy500010   5   0   0   0   1   0   1      0.16899420    
  dy010010   0   1   0   0   1   0   5      0.15353292    
  dy110010   1   1   0   0   1   0   4      0.88307584E-01
  dy210010   2   1   0   0   1   0   3     -0.27480490    
  dy410010   4   1   0   0   1   0   1       1.7654011    
  dy020010   0   2   0   0   1   0   4     -0.26138085E-01
  dy030010   0   3   0   0   1   0   3     -0.16453065    
  dy130010   1   3   0   0   1   0   2      -1.9655160    
  dy040010   0   4   0   0   1   0   2      0.21391021    
  dy140010   1   4   0   0   1   0   1       4.4734436    
  dy001010   0   0   1   0   1   0   5      0.19699494    
  dy101010   1   0   1   0   1   0   4      -1.0054357    
  dy301010   3   0   1   0   1   0   2       1.5530926    
  dy011010   0   1   1   0   1   0   4      0.16597961    
  dy111010   1   1   1   0   1   0   3       2.1754760    
  dy211010   2   1   1   0   1   0   2      -6.7452871    
  dy021010   0   2   1   0   1   0   3      0.52309698    
  dy002010   0   0   2   0   1   0   4      0.21232132    
  dy302010   3   0   2   0   1   0   1      -14.630312    
  dy112010   1   1   2   0   1   0   2      -4.5175996    
  dy022010   0   2   2   0   1   0   2      -6.9012499    
  dy003010   0   0   3   0   1   0   3      0.51813671    
  dy203010   2   0   3   0   1   0   1       13.748692    
  dy004010   0   0   4   0   1   0   2      0.38064899    
  dy104010   1   0   4   0   1   0   1      -5.0388290    
  dy005010   0   0   5   0   1   0   1     -0.79686271    
  dy000110   0   0   0   1   1   0   5     -0.18172026    
  dy100110   1   0   0   1   1   0   4      0.56119582E-01
  dy200110   2   0   0   1   1   0   3     -0.17663104    
  dy300110   3   0   0   1   1   0   2      0.64357337E-01
  dy010110   0   1   0   1   1   0   4      0.16042923    
  dy210110   2   1   0   1   1   0   2      -3.1057309    
  dy020110   0   2   0   1   1   0   3      0.20345821    
  dy120110   1   2   0   1   1   0   2      -7.6433640    
  dy130110   1   3   0   1   1   0   1       5.9531005    
  dy001110   0   0   1   1   1   0   4      0.15487201    
  dy201110   2   0   1   1   1   0   2      -4.0610335    
  dy011110   0   1   1   1   1   0   3       1.0856328    
  dy111110   1   1   1   1   1   0   2       24.100278    
  dy031110   0   3   1   1   1   0   1       3.1762298    
  dy022110   0   2   2   1   1   0   1      -28.089096    
  dy013110   0   1   3   1   1   0   1      0.23357066    
  dy000210   0   0   0   2   1   0   4     -0.16806624    
  dy100210   1   0   0   2   1   0   3      0.85373061E-01
  dy010210   0   1   0   2   1   0   3      0.24386390    
  dy120210   1   2   0   2   1   0   1      -18.805967    
  dy001210   0   0   1   2   1   0   3      0.51978245    
  dy111210   1   1   1   2   1   0   1      -12.269120    
  dy002210   0   0   2   2   1   0   2      -1.1768684    
  dy102210   1   0   2   2   1   0   1      -16.028180    
  dy000310   0   0   0   3   1   0   3     -0.11513625    
  dy020310   0   2   0   3   1   0   1      -3.3131358    
  dy002310   0   0   2   3   1   0   1      -3.2860898    
  dy000410   0   0   0   4   1   0   2     -0.81981181E-01
  dy100410   1   0   0   4   1   0   1      0.10062141    
  dy001410   0   0   1   4   1   0   1     -0.76570474E-01
  dy000020   0   0   0   0   2   0   5      -1.1658431    
  dy100020   1   0   0   0   2   0   4      0.53905091    
  dy200020   2   0   0   0   2   0   3      0.40504159    
  dy300020   3   0   0   0   2   0   2     -0.29906572    
  dy400020   4   0   0   0   2   0   1     -0.15540092    
  dy010020   0   1   0   0   2   0   4     -0.60292325E-02
  dy110020   1   1   0   0   2   0   3      0.40624794    
  dy210020   2   1   0   0   2   0   2      -1.0576942    
  dy020020   0   2   0   0   2   0   3      0.36920524    
  dy120020   1   2   0   0   2   0   2     -0.85151751    
  dy040020   0   4   0   0   2   0   1      -2.0466873    
  dy001020   0   0   1   0   2   0   4     -0.76023432    
  dy101020   1   0   1   0   2   0   3       1.0217516    
  dy201020   2   0   1   0   2   0   2     -0.58002791    
  dy301020   3   0   1   0   2   0   1       3.7083381    
  dy011020   0   1   1   0   2   0   3     -0.68169992    
  dy002020   0   0   2   0   2   0   3      0.78890397    
  dy012020   0   1   2   0   2   0   2       1.6764622    
  dy003020   0   0   3   0   2   0   2       1.1240403    
  dy004020   0   0   4   0   2   0   1      -1.2118350    
  dy000120   0   0   0   1   2   0   4     -0.23099415    
  dy100120   1   0   0   1   2   0   3     -0.10596742    
  dy200120   2   0   0   1   2   0   2       1.0660150    
  dy110120   1   1   0   1   2   0   2      0.90169656    
  dy020120   0   2   0   1   2   0   2      0.78129945    
  dy001120   0   0   1   1   2   0   3     -0.34268139    
  dy011120   0   1   1   1   2   0   2       1.4939335    
  dy002120   0   0   2   1   2   0   2      0.88654649    
  dy102120   1   0   2   1   2   0   1       21.030863    
  dy012120   0   1   2   1   2   0   1       31.350526    
  dy000220   0   0   0   2   2   0   3      0.31855753E-01
  dy200220   2   0   0   2   2   0   1       1.6036589    
  dy001220   0   0   1   2   2   0   2      0.35588094    
  dy002220   0   0   2   2   2   0   1       3.8826688    
  dy000320   0   0   0   3   2   0   2     -0.37778379E-01
  dy000420   0   0   0   4   2   0   1      0.58993445E-01
  dy000030   0   0   0   0   3   0   4      0.13095780    
  dy100030   1   0   0   0   3   0   3      0.16614483    
  dy200030   2   0   0   0   3   0   2     -0.98330352    
  dy010030   0   1   0   0   3   0   3     -0.19900259    
  dy110030   1   1   0   0   3   0   2      0.14930109    
  dy120030   1   2   0   0   3   0   1      -2.7896225    
  dy101030   1   0   1   0   3   0   2       1.1946009    
  dy102030   1   0   2   0   3   0   1      -4.3054279    
  dy000130   0   0   0   1   3   0   3      0.12611168    
  dy011130   0   1   1   1   3   0   1       2.6333457    
  dy000230   0   0   0   2   3   0   2      0.94489918E-01
  dy010230   0   1   0   2   3   0   1     -0.47543858    
  dy001230   0   0   1   2   3   0   1     -0.71549338    
  dy000040   0   0   0   0   4   0   3      0.13085908    
  dy100040   1   0   0   0   4   0   2     -0.10715022    
  dy200040   2   0   0   0   4   0   1     -0.61282330    
  dy010040   0   1   0   0   4   0   2     -0.11035538    
  dy020040   0   2   0   0   4   0   1     -0.32588436    
  dy001040   0   0   1   0   4   0   2     -0.20201440    
  dy101040   1   0   1   0   4   0   1       1.1458831    
  dy011040   0   1   1   0   4   0   1      0.72670046    
  dy002040   0   0   2   0   4   0   1     -0.76000018    
  dy000140   0   0   0   1   4   0   2      0.19404906    
  dy100140   1   0   0   1   4   0   1      0.23613170    
  dy010140   0   1   0   1   4   0   1      0.36743935    
  dy001140   0   0   1   1   4   0   1      0.48691316    
  dy000050   0   0   0   0   5   0   2     -0.12430321E-01
  dy100050   1   0   0   0   5   0   1     -0.40002503E-01
  dy001050   0   0   1   0   5   0   1     -0.15678786    
  dy000150   0   0   0   1   5   0   1      0.69829617E-01
  dy000060   0   0   0   0   6   0   1      0.14260923E-01
  dy000001   0   0   0   0   0   1   6      0.73663807E-01
  dy100001   1   0   0   0   0   1   5     -0.13721056    
  dy200001   2   0   0   0   0   1   4      0.40790451E-01
  dy300001   3   0   0   0   0   1   3      0.11118479    
  dy400001   4   0   0   0   0   1   2     -0.12006182    
  dy010001   0   1   0   0   0   1   5     -0.13997868    
  dy110001   1   1   0   0   0   1   4      0.15798283    
  dy210001   2   1   0   0   0   1   3     -0.24911211E-01
  dy310001   3   1   0   0   0   1   2      0.10301042    
  dy020001   0   2   0   0   0   1   4     -0.37166382E-01
  dy120001   1   2   0   0   0   1   3      0.93848202E-01
  dy220001   2   2   0   0   0   1   2      0.31460131    
  dy130001   1   3   0   0   0   1   2      0.59413295    
  dy040001   0   4   0   0   0   1   2      0.15325664E-01
  dy140001   1   4   0   0   0   1   1      -1.7088302    
  dy001001   0   0   1   0   0   1   5     -0.11197121E-02
  dy101001   1   0   1   0   0   1   4      0.16160362    
  dy201001   2   0   1   0   0   1   3     -0.23967683    
  dy301001   3   0   1   0   0   1   2      0.53975207    
  dy401001   4   0   1   0   0   1   1     -0.69156345    
  dy011001   0   1   1   0   0   1   4      0.99352804E-01
  dy311001   3   1   1   0   0   1   1      0.96694853    
  dy121001   1   2   1   0   0   1   2       1.1887966    
  dy031001   0   3   1   0   0   1   2     -0.13807776    
  dy002001   0   0   2   0   0   1   4     -0.34428913E-01
  dy102001   1   0   2   0   0   1   3      0.36356709    
  dy302001   3   0   2   0   0   1   1       2.1152758    
  dy012001   0   1   2   0   0   1   3      0.17701418    
  dy212001   2   1   2   0   0   1   1       7.7159715    
  dy122001   1   2   2   0   0   1   1      -8.3530398    
  dy003001   0   0   3   0   0   1   3     -0.83280855E-01
  dy103001   1   0   3   0   0   1   2       1.0590424    
  dy203001   2   0   3   0   0   1   1      -3.4683596    
  dy113001   1   1   3   0   0   1   1      -2.1554328    
  dy004001   0   0   4   0   0   1   2     -0.20437089    
  dy014001   0   1   4   0   0   1   1     -0.17269167    
  dy000101   0   0   0   1   0   1   5      0.18024915    
  dy100101   1   0   0   1   0   1   4      0.23096936E-01
  dy200101   2   0   0   1   0   1   3     -0.27036963    
  dy300101   3   0   0   1   0   1   2      0.47498870    
  dy010101   0   1   0   1   0   1   4     -0.70239876E-01
  dy110101   1   1   0   1   0   1   3     -0.41240436E-01
  dy310101   3   1   0   1   0   1   1      -1.0938475    
  dy020101   0   2   0   1   0   1   3      0.20433395E-01
  dy220101   2   2   0   1   0   1   1       3.6285101    
  dy040101   0   4   0   1   0   1   1      -1.9026487    
  dy001101   0   0   1   1   0   1   4     -0.54689375    
  dy101101   1   0   1   1   0   1   3       1.1824877    
  dy201101   2   0   1   1   0   1   2      0.10571633    
  dy011101   0   1   1   1   0   1   3      0.31140983    
  dy111101   1   1   1   1   0   1   2      -4.5427350    
  dy021101   0   2   1   1   0   1   2      0.95712754    
  dy121101   1   2   1   1   0   1   1       15.587510    
  dy002101   0   0   2   1   0   1   3     -0.52436741    
  dy102101   1   0   2   1   0   1   2       2.0136431    
  dy202101   2   0   2   1   0   1   1       6.3381838    
  dy003101   0   0   3   1   0   1   2     -0.44930468    
  dy013101   0   1   3   1   0   1   1      -2.4802064    
  dy004101   0   0   4   1   0   1   1     -0.72776571    
  dy000201   0   0   0   2   0   1   4     -0.48358704E-01
  dy100201   1   0   0   2   0   1   3     -0.16202541    
  dy200201   2   0   0   2   0   1   2      0.17651722    
  dy110201   1   1   0   2   0   1   2     -0.26954824    
  dy020201   0   2   0   2   0   1   2     -0.31809208    
  dy001201   0   0   1   2   0   1   3      0.29387945    
  dy101201   1   0   1   2   0   1   2     -0.89489297    
  dy011201   0   1   1   2   0   1   2     -0.42600800    
  dy102201   1   0   2   2   0   1   1      -2.0055495    
  dy000301   0   0   0   3   0   1   3      0.24248272E-01
  dy100301   1   0   0   3   0   1   2      0.23757276    
  dy200301   2   0   0   3   0   1   1     -0.49627473    
  dy020301   0   2   0   3   0   1   1     -0.42618849    
  dy001301   0   0   1   3   0   1   2     -0.36172869    
  dy002301   0   0   2   3   0   1   1     -0.28719743    
  dy000401   0   0   0   4   0   1   2     -0.11100143    
  dy100401   1   0   0   4   0   1   1     -0.49635724E-01
  dy010401   0   1   0   4   0   1   1      0.16169712    
  dy001401   0   0   1   4   0   1   1      0.40250660    
  dy000501   0   0   0   5   0   1   1     -0.27484344E-01
  dy000011   0   0   0   0   1   1   5      0.89652215E-01
  dy100011   1   0   0   0   1   1   4     -0.13449727    
  dy200011   2   0   0   0   1   1   3      0.48283582E-01
  dy400011   4   0   0   0   1   1   1     -0.39361541E-01
  dy010011   0   1   0   0   1   1   4     -0.10821761    
  dy110011   1   1   0   0   1   1   3      0.18704297    
  dy210011   2   1   0   0   1   1   2     -0.33530227    
  dy020011   0   2   0   0   1   1   3     -0.64305174E-01
  dy120011   1   2   0   0   1   1   2      0.43050522    
  dy030011   0   3   0   0   1   1   2      0.36219758    
  dy040011   0   4   0   0   1   1   1     -0.39787916    
  dy001011   0   0   1   0   1   1   4      0.82056822E-01
  dy101011   1   0   1   0   1   1   3     -0.10777740    
  dy201011   2   0   1   0   1   1   2      0.34647332    
  dy111011   1   1   1   0   1   1   2      -2.4627306    
  dy021011   0   2   1   0   1   1   2     -0.54551209    
  dy002011   0   0   2   0   1   1   3      0.22032203    
  dy012011   0   1   2   0   1   1   2      0.77925551    
  dy022011   0   2   2   0   1   1   1       13.620867    
  dy103011   1   0   3   0   1   1   1       1.8159767    
  dy013011   0   1   3   0   1   1   1       2.1557994    
  dy004011   0   0   4   0   1   1   1     -0.13114562    
  dy000111   0   0   0   1   1   1   4      0.18859033    
  dy100111   1   0   0   1   1   1   3      0.16507612    
  dy200111   2   0   0   1   1   1   2     -0.13304625    
  dy010111   0   1   0   1   1   1   3     -0.77058301E-01
  dy110111   1   1   0   1   1   1   2     -0.71841465    
  dy210111   2   1   0   1   1   1   1       5.0771260    
  dy120111   1   2   0   1   1   1   1       9.9295092    
  dy001111   0   0   1   1   1   1   3     -0.55684821    
  dy011111   0   1   1   1   1   1   2      -1.3719813    
  dy111111   1   1   1   1   1   1   1      -34.186047    
  dy002111   0   0   2   1   1   1   2      0.37882927    
  dy012111   0   1   2   1   1   1   1      -4.9348862    
  dy000211   0   0   0   2   1   1   3     -0.48157557E-01
  dy110211   1   1   0   2   1   1   1      -2.1423329    
  dy101211   1   0   1   2   1   1   1      -2.2259073    
  dy002211   0   0   2   2   1   1   1       2.8200341    
  dy000311   0   0   0   3   1   1   2      0.36217015E-01
  dy100311   1   0   0   3   1   1   1      0.59190628    
  dy001311   0   0   1   3   1   1   1     -0.27436831    
  dy000411   0   0   0   4   1   1   1     -0.36031979E-01
  dy000021   0   0   0   0   2   1   4     -0.52120674E-01
  dy100021   1   0   0   0   2   1   3      0.78460725E-01
  dy010021   0   1   0   0   2   1   3      0.42007851E-01
  dy020021   0   2   0   0   2   1   2     -0.31135718    
  dy030021   0   3   0   0   2   1   1     -0.51309326    
  dy001021   0   0   1   0   2   1   3      0.28978129E-01
  dy101021   1   0   1   0   2   1   2     -0.51500536    
  dy011021   0   1   1   0   2   1   2     -0.31734153    
  dy102021   1   0   2   0   2   1   1      -1.5336805    
  dy012021   0   1   2   0   2   1   1      -2.7079488    
  dy000121   0   0   0   1   2   1   3     -0.20826339    
  dy200121   2   0   0   1   2   1   1      -1.1266641    
  dy010121   0   1   0   1   2   1   2      0.33172517    
  dy110121   1   1   0   1   2   1   1      -2.2500051    
  dy020121   0   2   0   1   2   1   1      -2.7535466    
  dy001121   0   0   1   1   2   1   2      0.15128405    
  dy101121   1   0   1   1   2   1   1      -2.3921474    
  dy002121   0   0   2   1   2   1   1      -1.7842099    
  dy000221   0   0   0   2   2   1   2     -0.35170441E-01
  dy010221   0   1   0   2   2   1   1     -0.44331747    
  dy000321   0   0   0   3   2   1   1     -0.34091515    
  dy000031   0   0   0   0   3   1   3     -0.80938051E-01
  dy100031   1   0   0   0   3   1   2      0.10016228    
  dy010031   0   1   0   0   3   1   2     -0.18632160E-01
  dy020031   0   2   0   0   3   1   1     -0.21771435    
  dy001031   0   0   1   0   3   1   2     -0.15659406    
  dy011031   0   1   1   0   3   1   1     -0.59545038    
  dy002031   0   0   2   0   3   1   1     -0.36808823    
  dy000131   0   0   0   1   3   1   2     -0.23102378    
  dy010131   0   1   0   1   3   1   1      0.60812740    
  dy001131   0   0   1   1   3   1   1      0.26816816    
  dy000231   0   0   0   2   3   1   1     -0.39662467E-01
  dy000041   0   0   0   0   4   1   2      0.34959930E-02
  dy100041   1   0   0   0   4   1   1      0.26008256E-01
  dy010041   0   1   0   0   4   1   1     -0.32680119E-01
  dy001041   0   0   1   0   4   1   1     -0.12545918    
  dy000051   0   0   0   0   5   1   1      0.14692401E-01
  dy000002   0   0   0   0   0   2   5     -0.10486243E-01
  dy100002   1   0   0   0   0   2   4      0.82734228E-02
  dy200002   2   0   0   0   0   2   3      0.19032559E-01
  dy300002   3   0   0   0   0   2   2     -0.46794501E-01
  dy400002   4   0   0   0   0   2   1      0.57399650E-01
  dy010002   0   1   0   0   0   2   4      0.98927877E-03
  dy110002   1   1   0   0   0   2   3      0.18752144E-01
  dy210002   2   1   0   0   0   2   2     -0.54455388E-01
  dy310002   3   1   0   0   0   2   1     -0.46097790E-01
  dy020002   0   2   0   0   0   2   3     -0.69945691E-02
  dy120002   1   2   0   0   0   2   2      0.32830441E-01
  dy030002   0   3   0   0   0   2   2      0.28843708E-01
  dy130002   1   3   0   0   0   2   1     -0.32897016    
  dy040002   0   4   0   0   0   2   1      0.10162255    
  dy001002   0   0   1   0   0   2   4      0.15921906E-01
  dy101002   1   0   1   0   0   2   3      0.11007468    
  dy201002   2   0   1   0   0   2   2     -0.14176908    
  dy301002   3   0   1   0   0   2   1     -0.10500614    
  dy111002   1   1   1   0   0   2   2      0.17724596E-01
  dy021002   0   2   1   0   0   2   2     -0.10465423    
  dy002002   0   0   2   0   0   2   3     -0.60778587E-01
  dy102002   1   0   2   0   0   2   2      0.22556586    
  dy202002   2   0   2   0   0   2   1     -0.46842317    
  dy012002   0   1   2   0   0   2   2      0.82115708E-01
  dy003002   0   0   3   0   0   2   2     -0.67565467E-01
  dy103002   1   0   3   0   0   2   1     -0.35622113E-01
  dy004002   0   0   4   0   0   2   1      0.11151736    
  dy000102   0   0   0   1   0   2   4      0.17706442E-02
  dy100102   1   0   0   1   0   2   3     -0.47088350E-01
  dy200102   2   0   0   1   0   2   2      0.13378219    
  dy300102   3   0   0   1   0   2   1     -0.20648011    
  dy010102   0   1   0   1   0   2   3      0.10188550E-01
  dy020102   0   2   0   1   0   2   2      0.49301291E-01
  dy001102   0   0   1   1   0   2   3     -0.67977556E-02
  dy101102   1   0   1   1   0   2   2     -0.13437503    
  dy111102   1   1   1   1   0   2   1      0.40541981    
  dy002102   0   0   2   1   0   2   2      0.38381753E-01
  dy102102   1   0   2   1   0   2   1     -0.45114992    
  dy000202   0   0   0   2   0   2   3     -0.12769014E-01
  dy100202   1   0   0   2   0   2   2      0.92879464E-02
  dy200202   2   0   0   2   0   2   1     -0.12328809    
  dy110202   1   1   0   2   0   2   1      0.10842794    
  dy001202   0   0   1   2   0   2   2     -0.53854709E-01
  dy101202   1   0   1   2   0   2   1      0.42819550    
  dy000302   0   0   0   3   0   2   2      0.15945289E-01
  dy100302   1   0   0   3   0   2   1     -0.17792430E-01
  dy001302   0   0   1   3   0   2   1      0.72467429E-01
  dy000012   0   0   0   0   1   2   4      0.21560124E-01
  dy100012   1   0   0   0   1   2   3     -0.18730808E-01
  dy200012   2   0   0   0   1   2   2     -0.18088597E-01
  dy010012   0   1   0   0   1   2   3     -0.28246499E-01
  dy110012   1   1   0   0   1   2   2      0.15925489    
  dy210012   2   1   0   0   1   2   1     -0.14619904    
  dy020012   0   2   0   0   1   2   2      0.27908666E-01
  dy030012   0   3   0   0   1   2   1     -0.21753012    
  dy001012   0   0   1   0   1   2   3      0.94753369E-01
  dy101012   1   0   1   0   1   2   2      0.10925739    
  dy111012   1   1   1   0   1   2   1       1.9869219    
  dy021012   0   2   1   0   1   2   1       1.0672716    
  dy002012   0   0   2   0   1   2   2      0.10138221    
  dy012012   0   1   2   0   1   2   1     -0.26351750    
  dy003012   0   0   3   0   1   2   1      0.73628548E-01
  dy000112   0   0   0   1   1   2   3      0.17707477E-01
  dy100112   1   0   0   1   1   2   2     -0.73610995E-01
  dy010112   0   1   0   1   1   2   2      0.53252857E-01
  dy020112   0   2   0   1   1   2   1      0.31033555    
  dy001112   0   0   1   1   1   2   2     -0.52336843E-01
  dy011112   0   1   1   1   1   2   1       1.8616103    
  dy000212   0   0   0   2   1   2   2      0.21961071E-01
  dy001212   0   0   1   2   1   2   1      0.12992216    
  dy000312   0   0   0   3   1   2   1     -0.49285799E-01
  dy000022   0   0   0   0   2   2   3      0.46223251E-01
  dy100022   1   0   0   0   2   2   2     -0.35794015E-01
  dy200022   2   0   0   0   2   2   1      0.76095589E-01
  dy010022   0   1   0   0   2   2   2     -0.54013823E-01
  dy110022   1   1   0   0   2   2   1      0.17947523    
  dy020022   0   2   0   0   2   2   1      0.40612796    
  dy001022   0   0   1   0   2   2   2      0.48987701E-01
  dy011022   0   1   1   0   2   2   1     -0.35824909    
  dy002022   0   0   2   0   2   2   1      0.47071005    
  dy000122   0   0   0   1   2   2   2      0.25341139E-01
  dy001122   0   0   1   1   2   2   1     -0.13185067    
  dy000222   0   0   0   2   2   2   1      0.10090538    
  dy000032   0   0   0   0   3   2   2     -0.21205137E-01
  dy010032   0   1   0   0   3   2   1     -0.28518602E-01
  dy001032   0   0   1   0   3   2   1     -0.61754814E-01
  dy000132   0   0   0   1   3   2   1      0.91470227E-02
  dy000042   0   0   0   0   4   2   1     -0.35043274E-01
  dy000003   0   0   0   0   0   3   4     -0.22475743E-02
  dy100003   1   0   0   0   0   3   3      0.41539896E-02
  dy200003   2   0   0   0   0   3   2      0.27574242E-02
  dy300003   3   0   0   0   0   3   1     -0.84615859E-02
  dy010003   0   1   0   0   0   3   3      0.21739829E-02
  dy110003   1   1   0   0   0   3   2      0.51522578E-02
  dy210003   2   1   0   0   0   3   1     -0.10968942E-01
  dy020003   0   2   0   0   0   3   2      0.35847983E-02
  dy001003   0   0   1   0   0   3   3      0.29953642E-02
  dy101003   1   0   1   0   0   3   2     -0.13696512E-01
  dy011003   0   1   1   0   0   3   2     -0.71871626E-02
  dy002003   0   0   2   0   0   3   2      0.68940640E-02
  dy003003   0   0   3   0   0   3   1      0.16582846E-01
  dy000103   0   0   0   1   0   3   3     -0.60556518E-02
  dy100103   1   0   0   1   0   3   2     -0.40088710E-02
  dy200103   2   0   0   1   0   3   1      0.13176443E-01
  dy010103   0   1   0   1   0   3   2      0.67523247E-02
  dy001103   0   0   1   1   0   3   2      0.89581777E-02
  dy101103   1   0   1   1   0   3   1     -0.75308194E-01
  dy000203   0   0   0   2   0   3   2      0.10919080E-01
  dy010203   0   1   0   2   0   3   1     -0.19440067E-01
  dy000303   0   0   0   3   0   3   1     -0.44131966E-02
  dy000013   0   0   0   0   1   3   3     -0.28593221E-02
  dy100013   1   0   0   0   1   3   2      0.32478199E-02
  dy010013   0   1   0   0   1   3   2     -0.23382148E-02
  dy020013   0   2   0   0   1   3   1     -0.29534480E-01
  dy001013   0   0   1   0   1   3   2      0.97438725E-02
  dy011013   0   1   1   0   1   3   1     -0.96135675E-01
  dy002013   0   0   2   0   1   3   1     -0.33664110E-01
  dy000113   0   0   0   1   1   3   2     -0.13717871E-01
  dy010113   0   1   0   1   1   3   1      0.27748789E-01
  dy000213   0   0   0   2   1   3   1      0.70158212E-02
  dy000023   0   0   0   0   2   3   2      0.41213165E-02
  dy100023   1   0   0   0   2   3   1     -0.75581843E-02
  dy010023   0   1   0   0   2   3   1     -0.65234814E-02
  dy001023   0   0   1   0   2   3   1      0.83497214E-02
  dy000033   0   0   0   0   3   3   1      0.47058121E-02
  dy000004   0   0   0   0   0   4   3      0.39548837E-03
  dy100004   1   0   0   0   0   4   2      0.51145033E-03
  dy200004   2   0   0   0   0   4   1     -0.77220907E-03
  dy010004   0   1   0   0   0   4   2     -0.63866481E-03
  dy002004   0   0   2   0   0   4   1      0.63907337E-02
  dy000104   0   0   0   1   0   4   2      0.28688586E-03
  dy000014   0   0   0   0   1   4   2     -0.73958181E-03
  dy001014   0   0   1   0   1   4   1     -0.48362905E-02
  dy000114   0   0   0   1   1   4   1      0.20382912E-02
  dy000024   0   0   0   0   2   4   1     -0.14906691E-02
  dy000005   0   0   0   0   0   5   2      0.52321695E-04
  dy010005   0   1   0   0   0   5   1     -0.16093920E-03
  dy001005   0   0   1   0   0   5   1     -0.36192913E-03
  dy000105   0   0   0   1   0   5   1      0.29373242E-03
  dy000006   0   0   0   0   0   6   1     -0.40990420E-04
re_OP       0 0 0 0 0 0               0          1.60429226
re_PO       0 0 0 0 0 0               0          1.46833127
re_OH        0 0 0 0 0 0              0          0.96798292
ae_OPO      0 0 0 0 0 0               0        110.72852741
ae_POH       0 0 0 0 0 0              0        113.05478765
  dz000000   0   0   0   0   0   0   7       1.5267979    
  dz100000   1   0   0   0   0   0   6      -5.8975391    
  dz200000   2   0   0   0   0   0   5     -0.67515053    
  dz300000   3   0   0   0   0   0   4       1.8523897    
  dz400000   4   0   0   0   0   0   3     -0.46513251E-01
  dz500000   5   0   0   0   0   0   2       3.3962967    
  dz600000   6   0   0   0   0   0   1      -3.3916970    
  dz010000   0   1   0   0   0   0   6       2.3104656    
  dz110000   1   1   0   0   0   0   5      0.70352783    
  dz210000   2   1   0   0   0   0   4       2.0516134    
  dz310000   3   1   0   0   0   0   3     -0.14785171    
  dz510000   5   1   0   0   0   0   1      0.67115310    
  dz020000   0   2   0   0   0   0   5      -1.2701837    
  dz120000   1   2   0   0   0   0   4     -0.75894384    
  dz220000   2   2   0   0   0   0   3      0.25413081    
  dz320000   3   2   0   0   0   0   2       7.2076127    
  dz420000   4   2   0   0   0   0   1      -8.4814704    
  dz030000   0   3   0   0   0   0   4      -1.2342998    
  dz130000   1   3   0   0   0   0   3     -0.82061224    
  dz230000   2   3   0   0   0   0   2     -0.94478578E-01
  dz040000   0   4   0   0   0   0   3       2.1000341    
  dz140000   1   4   0   0   0   0   2      0.26539712    
  dz240000   2   4   0   0   0   0   1     -0.12181887    
  dz050000   0   5   0   0   0   0   2      -4.8133161    
  dz150000   1   5   0   0   0   0   1      -1.1859342    
  dz060000   0   6   0   0   0   0   1      0.24531157    
  dz001000   0   0   1   0   0   0   6      0.94889442    
  dz101000   1   0   1   0   0   0   5     -0.27436174E-01
  dz201000   2   0   1   0   0   0   4     -0.24427989    
  dz301000   3   0   1   0   0   0   3       1.6118292    
  dz401000   4   0   1   0   0   0   2     -0.70988760    
  dz501000   5   0   1   0   0   0   1      0.94439231    
  dz011000   0   1   1   0   0   0   5      0.69208825    
  dz111000   1   1   1   0   0   0   4      0.16095721    
  dz211000   2   1   1   0   0   0   3      -1.3340752    
  dz311000   3   1   1   0   0   0   2     -0.94168429    
  dz411000   4   1   1   0   0   0   1       4.2633817    
  dz021000   0   2   1   0   0   0   4     -0.17064075    
  dz121000   1   2   1   0   0   0   3     -0.11879501    
  dz221000   2   2   1   0   0   0   2      -4.0264564    
  dz321000   3   2   1   0   0   0   1      -13.401151    
  dz031000   0   3   1   0   0   0   3     -0.71252651    
  dz131000   1   3   1   0   0   0   2       1.5666955    
  dz231000   2   3   1   0   0   0   1       2.2905813    
  dz041000   0   4   1   0   0   0   2       2.7023487    
  dz141000   1   4   1   0   0   0   1       3.2229573    
  dz051000   0   5   1   0   0   0   1       1.8860928    
  dz002000   0   0   2   0   0   0   5     -0.64390633    
  dz102000   1   0   2   0   0   0   4      0.33925428    
  dz202000   2   0   2   0   0   0   3      -4.4634741    
  dz302000   3   0   2   0   0   0   2       16.790219    
  dz402000   4   0   2   0   0   0   1      0.62708027    
  dz012000   0   1   2   0   0   0   4     -0.40409816E-01
  dz112000   1   1   2   0   0   0   3      0.23737422    
  dz312000   3   1   2   0   0   0   1      -25.641142    
  dz022000   0   2   2   0   0   0   3       1.0168931    
  dz122000   1   2   2   0   0   0   2      -15.643313    
  dz222000   2   2   2   0   0   0   1      -5.0333870    
  dz032000   0   3   2   0   0   0   2      -9.1943629    
  dz132000   1   3   2   0   0   0   1      -7.5049737    
  dz042000   0   4   2   0   0   0   1      -9.3583073    
  dz003000   0   0   3   0   0   0   4     -0.73033182    
  dz103000   1   0   3   0   0   0   3       2.1451556    
  dz203000   2   0   3   0   0   0   2      -6.7749550    
  dz013000   0   1   3   0   0   0   3     -0.63803851    
  dz113000   1   1   3   0   0   0   2      0.90628725    
  dz213000   2   1   3   0   0   0   1       7.6851153    
  dz023000   0   2   3   0   0   0   2      -3.6863782    
  dz123000   1   2   3   0   0   0   1       18.423770    
  dz033000   0   3   3   0   0   0   1       52.838603    
  dz004000   0   0   4   0   0   0   3     -0.29199968    
  dz104000   1   0   4   0   0   0   2      0.99748954    
  dz204000   2   0   4   0   0   0   1     -0.53189388    
  dz014000   0   1   4   0   0   0   2     -0.68921641E-01
  dz114000   1   1   4   0   0   0   1      0.68491594E-01
  dz024000   0   2   4   0   0   0   1      0.21403517E-01
  dz005000   0   0   5   0   0   0   2      -1.2343399    
  dz105000   1   0   5   0   0   0   1      0.39515509E-01
  dz006000   0   0   6   0   0   0   1       1.5773203    
  dz000100   0   0   0   1   0   0   6       3.1802600    
  dz100100   1   0   0   1   0   0   5      -1.4903320    
  dz200100   2   0   0   1   0   0   4      -1.1085531    
  dz300100   3   0   0   1   0   0   3       1.5392687    
  dz400100   4   0   0   1   0   0   2      0.57930640    
  dz010100   0   1   0   1   0   0   5       1.8860976    
  dz110100   1   1   0   1   0   0   4      -2.1840105    
  dz210100   2   1   0   1   0   0   3       1.8666911    
  dz310100   3   1   0   1   0   0   2      -2.8072696    
  dz410100   4   1   0   1   0   0   1      -1.3278245    
  dz020100   0   2   0   1   0   0   4     -0.20736584    
  dz220100   2   2   0   1   0   0   2      -4.4108582    
  dz320100   3   2   0   1   0   0   1      -9.3681482    
  dz030100   0   3   0   1   0   0   3      -1.6547504    
  dz130100   1   3   0   1   0   0   2      0.16968971    
  dz230100   2   3   0   1   0   0   1     -0.95720809    
  dz140100   1   4   0   1   0   0   1      0.36244802    
  dz050100   0   5   0   1   0   0   1      -5.6092693    
  dz001100   0   0   1   1   0   0   5      0.11926347    
  dz201100   2   0   1   1   0   0   3     -0.60185937    
  dz301100   3   0   1   1   0   0   2       5.0800053    
  dz401100   4   0   1   1   0   0   1      -7.9824324    
  dz011100   0   1   1   1   0   0   4      0.36085883    
  dz111100   1   1   1   1   0   0   3       2.5113706    
  dz211100   2   1   1   1   0   0   2      -28.435980    
  dz311100   3   1   1   1   0   0   1       16.770014    
  dz121100   1   2   1   1   0   0   2       26.830252    
  dz221100   2   2   1   1   0   0   1       69.474536    
  dz131100   1   3   1   1   0   0   1       7.6225401    
  dz002100   0   0   2   1   0   0   4     -0.16470441    
  dz102100   1   0   2   1   0   0   3      0.77875745    
  dz202100   2   0   2   1   0   0   2      -12.999214    
  dz012100   0   1   2   1   0   0   3      0.74960594    
  dz112100   1   1   2   1   0   0   2       7.6387054    
  dz212100   2   1   2   1   0   0   1      -57.337797    
  dz122100   1   2   2   1   0   0   1       264.53442    
  dz032100   0   3   2   1   0   0   1      -52.549075    
  dz003100   0   0   3   1   0   0   3     -0.30796161    
  dz103100   1   0   3   1   0   0   2       9.1279284    
  dz203100   2   0   3   1   0   0   1      -18.904417    
  dz023100   0   2   3   1   0   0   1      -1.7989176    
  dz004100   0   0   4   1   0   0   2     -0.61597843    
  dz104100   1   0   4   1   0   0   1     -0.62001004    
  dz014100   0   1   4   1   0   0   1     -0.69852237    
  dz005100   0   0   5   1   0   0   1      0.17111045    
  dz000200   0   0   0   2   0   0   5      -1.6312318    
  dz100200   1   0   0   2   0   0   4      0.74321101    
  dz200200   2   0   0   2   0   0   3      -1.2718856    
  dz300200   3   0   0   2   0   0   2       4.3873451    
  dz010200   0   1   0   2   0   0   4      0.15202815    
  dz110200   1   1   0   2   0   0   3      0.96662805    
  dz210200   2   1   0   2   0   0   2       5.1416457    
  dz310200   3   1   0   2   0   0   1      -9.0178445    
  dz020200   0   2   0   2   0   0   3       1.2294912    
  dz120200   1   2   0   2   0   0   2      -3.3746027    
  dz220200   2   2   0   2   0   0   1      -40.041416    
  dz130200   1   3   0   2   0   0   1      -4.9281026    
  dz040200   0   4   0   2   0   0   1      -14.210468    
  dz001200   0   0   1   2   0   0   4     -0.48569085    
  dz101200   1   0   1   2   0   0   3       1.5485929    
  dz201200   2   0   1   2   0   0   2       3.5786427    
  dz011200   0   1   1   2   0   0   3      0.54344400    
  dz211200   2   1   1   2   0   0   1       54.363355    
  dz121200   1   2   1   2   0   0   1      -4.1033378    
  dz031200   0   3   1   2   0   0   1       8.4304544    
  dz002200   0   0   2   2   0   0   3     -0.67894826    
  dz102200   1   0   2   2   0   0   2       1.1450182    
  dz202200   2   0   2   2   0   0   1      -50.693532    
  dz012200   0   1   2   2   0   0   2       3.3422680    
  dz112200   1   1   2   2   0   0   1      -25.636819    
  dz022200   0   2   2   2   0   0   1       5.5560660    
  dz003200   0   0   3   2   0   0   2     -0.91252685    
  dz013200   0   1   3   2   0   0   1     -0.46634624    
  dz004200   0   0   4   2   0   0   1     -0.36195038    
  dz000300   0   0   0   3   0   0   4     -0.93191115    
  dz100300   1   0   0   3   0   0   3      0.14522248    
  dz300300   3   0   0   3   0   0   1      0.86810311    
  dz010300   0   1   0   3   0   0   3     -0.42230463    
  dz110300   1   1   0   3   0   0   2      0.31792537    
  dz210300   2   1   0   3   0   0   1      -8.5140191    
  dz020300   0   2   0   3   0   0   2      0.86872496    
  dz030300   0   3   0   3   0   0   1      -8.5780478    
  dz001300   0   0   1   3   0   0   3      0.95724875E-01
  dz101300   1   0   1   3   0   0   2       1.2350308    
  dz011300   0   1   1   3   0   0   2       1.0948607    
  dz111300   1   1   1   3   0   0   1       17.162947    
  dz002300   0   0   2   3   0   0   2      0.49208581    
  dz012300   0   1   2   3   0   0   1      -10.001335    
  dz003300   0   0   3   3   0   0   1     -0.97022567    
  dz000400   0   0   0   4   0   0   3      0.24056121    
  dz100400   1   0   0   4   0   0   2     -0.22004979    
  dz200400   2   0   0   4   0   0   1       1.3925008    
  dz020400   0   2   0   4   0   0   1      -1.0241249    
  dz001400   0   0   1   4   0   0   2     -0.31409689E-01
  dz101400   1   0   1   4   0   0   1      -1.8358720    
  dz011400   0   1   1   4   0   0   1      -1.3004029    
  dz002400   0   0   2   4   0   0   1     -0.19844665E-01
  dz000500   0   0   0   5   0   0   2     -0.59052653E-01
  dz100500   1   0   0   5   0   0   1      0.74885632E-01
  dz010500   0   1   0   5   0   0   1      0.30452481E-01
  dz000600   0   0   0   6   0   0   1      0.22811810    
  dz000010   0   0   0   0   1   0   6      -1.5039544    
  dz100010   1   0   0   0   1   0   5       1.9907283    
  dz200010   2   0   0   0   1   0   4      0.30069052    
  dz300010   3   0   0   0   1   0   3     -0.80772724    
  dz400010   4   0   0   0   1   0   2      -1.3898338    
  dz500010   5   0   0   0   1   0   1       1.3155720    
  dz010010   0   1   0   0   1   0   5     -0.84908124E-01
  dz110010   1   1   0   0   1   0   4      0.17090444    
  dz210010   2   1   0   0   1   0   3      0.36075160    
  dz410010   4   1   0   0   1   0   1      -1.8279903    
  dz020010   0   2   0   0   1   0   4     -0.24810935E-01
  dz120010   1   2   0   0   1   0   3     -0.96194677    
  dz220010   2   2   0   0   1   0   2      -3.7771372    
  dz320010   3   2   0   0   1   0   1      0.85598858    
  dz030010   0   3   0   0   1   0   3      0.39456354    
  dz130010   1   3   0   0   1   0   2      -1.0860431    
  dz230010   2   3   0   0   1   0   1      -1.9771020    
  dz040010   0   4   0   0   1   0   2      0.85779522E-01
  dz140010   1   4   0   0   1   0   1       1.0012229    
  dz001010   0   0   1   0   1   0   5      -1.0587569    
  dz101010   1   0   1   0   1   0   4       1.0919118    
  dz201010   2   0   1   0   1   0   3      -2.7204643    
  dz301010   3   0   1   0   1   0   2       2.5463746    
  dz011010   0   1   1   0   1   0   4     -0.53431368    
  dz111010   1   1   1   0   1   0   3      0.53409178    
  dz211010   2   1   1   0   1   0   2      -3.8538885    
  dz021010   0   2   1   0   1   0   3      0.42352795    
  dz221010   2   2   1   0   1   0   1       90.784100    
  dz031010   0   3   1   0   1   0   2       2.0818753    
  dz131010   1   3   1   0   1   0   1      -25.730937    
  dz041010   0   4   1   0   1   0   1      -11.658240    
  dz002010   0   0   2   0   1   0   4      0.21841718E-01
  dz102010   1   0   2   0   1   0   3      0.44131057    
  dz202010   2   0   2   0   1   0   2      -13.540369    
  dz112010   1   1   2   0   1   0   2       3.8867189    
  dz122010   1   2   2   0   1   0   1      -27.101809    
  dz032010   0   3   2   0   1   0   1       38.673080    
  dz003010   0   0   3   0   1   0   3       1.6338306    
  dz103010   1   0   3   0   1   0   2      -3.3099402    
  dz013010   0   1   3   0   1   0   2       1.1704363    
  dz113010   1   1   3   0   1   0   1      -5.2133765    
  dz023010   0   2   3   0   1   0   1      0.25640788    
  dz004010   0   0   4   0   1   0   2       1.1756760    
  dz104010   1   0   4   0   1   0   1      0.92029783    
  dz014010   0   1   4   0   1   0   1       1.1076124    
  dz005010   0   0   5   0   1   0   1      0.12174140    
  dz000110   0   0   0   1   1   0   5     -0.68259238E-01
  dz100110   1   0   0   1   1   0   4      0.29098943    
  dz200110   2   0   0   1   1   0   3     -0.27669743    
  dz300110   3   0   0   1   1   0   2      0.36771594    
  dz010110   0   1   0   1   1   0   4     -0.55014442E-01
  dz210110   2   1   0   1   1   0   2       5.3813982    
  dz310110   3   1   0   1   1   0   1       7.6104220    
  dz020110   0   2   0   1   1   0   3     -0.59750491    
  dz130110   1   3   0   1   1   0   1      -5.3086067    
  dz040110   0   4   0   1   1   0   1       3.6662510    
  dz001110   0   0   1   1   1   0   4      0.42884854    
  dz301110   3   0   1   1   1   0   1       7.2744499    
  dz211110   2   1   1   1   1   0   1      -234.58152    
  dz121110   1   2   1   1   1   0   1      -61.220895    
  dz102110   1   0   2   1   1   0   2      -4.4297110    
  dz202110   2   0   2   1   1   0   1      -38.750842    
  dz012110   0   1   2   1   1   0   2      -4.2149125    
  dz022110   0   2   2   1   1   0   1      -17.554788    
  dz003110   0   0   3   1   1   0   2       1.8241104    
  dz103110   1   0   3   1   1   0   1      -24.802686    
  dz004110   0   0   4   1   1   0   1       5.7722749    
  dz000210   0   0   0   2   1   0   4      0.81927301E-01
  dz100210   1   0   0   2   1   0   3     -0.75374019E-01
  dz200210   2   0   0   2   1   0   2      -1.3018194    
  dz010210   0   1   0   2   1   0   3     -0.34472198    
  dz210210   2   1   0   2   1   0   1       25.808712    
  dz120210   1   2   0   2   1   0   1      -9.6529024    
  dz001210   0   0   1   2   1   0   3      0.53129014    
  dz201210   2   0   1   2   1   0   1       10.900323    
  dz011210   0   1   1   2   1   0   2      -3.3347853    
  dz111210   1   1   1   2   1   0   1      -68.527011    
  dz002210   0   0   2   2   1   0   2      -1.4733073    
  dz102210   1   0   2   2   1   0   1      -35.152691    
  dz012210   0   1   2   2   1   0   1      -6.6013671    
  dz003210   0   0   3   2   1   0   1      0.67262743    
  dz000310   0   0   0   3   1   0   3     -0.85495282E-01
  dz100310   1   0   0   3   1   0   2     -0.44888285    
  dz110310   1   1   0   3   1   0   1       3.2427134    
  dz020310   0   2   0   3   1   0   1       4.1176674    
  dz001310   0   0   1   3   1   0   2      0.45161851    
  dz101310   1   0   1   3   1   0   1       5.1596450    
  dz011310   0   1   1   3   1   0   1       3.0050007    
  dz002310   0   0   2   3   1   0   1      0.62146298    
  dz000410   0   0   0   4   1   0   2     -0.22796607E-01
  dz001410   0   0   1   4   1   0   1     -0.13142603    
  dz000510   0   0   0   5   1   0   1      0.91858244E-01
  dz000020   0   0   0   0   2   0   5     -0.90664455E-01
  dz100020   1   0   0   0   2   0   4      -1.0688906    
  dz200020   2   0   0   0   2   0   3      -1.2482202    
  dz300020   3   0   0   0   2   0   2       2.9789364    
  dz400020   4   0   0   0   2   0   1      -1.1232381    
  dz010020   0   1   0   0   2   0   4      0.12716571    
  dz210020   2   1   0   0   2   0   2     -0.88382706    
  dz310020   3   1   0   0   2   0   1       4.1206343    
  dz020020   0   2   0   0   2   0   3      0.26517384    
  dz120020   1   2   0   0   2   0   2      -1.3738652    
  dz220020   2   2   0   0   2   0   1       17.826953    
  dz130020   1   3   0   0   2   0   1       8.7152512    
  dz040020   0   4   0   0   2   0   1      -2.6795365    
  dz001020   0   0   1   0   2   0   4      0.45021681    
  dz101020   1   0   1   0   2   0   3      0.83378825    
  dz201020   2   0   1   0   2   0   2      -3.1270626    
  dz011020   0   1   1   0   2   0   3      0.47961195    
  dz111020   1   1   1   0   2   0   2       9.4972673    
  dz211020   2   1   1   0   2   0   1      -9.3959529    
  dz021020   0   2   1   0   2   0   2       3.8959286    
  dz121020   1   2   1   0   2   0   1       4.9415100    
  dz031020   0   3   1   0   2   0   1       9.0900227    
  dz002020   0   0   2   0   2   0   3     -0.33625301    
  dz202020   2   0   2   0   2   0   1       5.1412766    
  dz012020   0   1   2   0   2   0   2       3.7900845    
  dz112020   1   1   2   0   2   0   1      -14.704850    
  dz022020   0   2   2   0   2   0   1       53.642634    
  dz003020   0   0   3   0   2   0   2     -0.93494965    
  dz013020   0   1   3   0   2   0   1       1.1883019    
  dz004020   0   0   4   0   2   0   1      -2.1793649    
  dz000120   0   0   0   1   2   0   4     -0.13072324    
  dz100120   1   0   0   1   2   0   3     -0.47663959E-01
  dz200120   2   0   0   1   2   0   2     -0.28391541    
  dz010120   0   1   0   1   2   0   3      0.24807933    
  dz110120   1   1   0   1   2   0   2       4.9430606    
  dz210120   2   1   0   1   2   0   1      -15.404630    
  dz001120   0   0   1   1   2   0   3     -0.60148670E-01
  dz101120   1   0   1   1   2   0   2       7.1758456    
  dz201120   2   0   1   1   2   0   1      -17.702136    
  dz011120   0   1   1   1   2   0   2       5.1068908    
  dz111120   1   1   1   1   2   0   1       266.24338    
  dz021120   0   2   1   1   2   0   1      -20.307438    
  dz012120   0   1   2   1   2   0   1       14.404940    
  dz003120   0   0   3   1   2   0   1      -7.2115336    
  dz000220   0   0   0   2   2   0   3      0.15690621E-01
  dz200220   2   0   0   2   2   0   1      -4.5875687    
  dz110220   1   1   0   2   2   0   1      -6.4639042    
  dz020220   0   2   0   2   2   0   1      -4.7539564    
  dz001220   0   0   1   2   2   0   2     -0.67201210    
  dz101220   1   0   1   2   2   0   1      -1.8198619    
  dz011220   0   1   1   2   2   0   1      -9.0913900    
  dz002220   0   0   2   2   2   0   1      -2.4694750    
  dz000320   0   0   0   3   2   0   2      0.87735743E-01
  dz010320   0   1   0   3   2   0   1      0.98380609    
  dz000420   0   0   0   4   2   0   1     -0.14246120    
  dz000030   0   0   0   0   3   0   4      0.26661903    
  dz100030   1   0   0   0   3   0   3     -0.50998601    
  dz200030   2   0   0   0   3   0   2     -0.38478814    
  dz300030   3   0   0   0   3   0   1       2.2215299    
  dz010030   0   1   0   0   3   0   3     -0.87738671E-01
  dz210030   2   1   0   0   3   0   1      -1.2075291    
  dz020030   0   2   0   0   3   0   2      0.29082830    
  dz030030   0   3   0   0   3   0   1     -0.97736368    
  dz001030   0   0   1   0   3   0   3      0.20821108    
  dz101030   1   0   1   0   3   0   2       2.5215805    
  dz201030   2   0   1   0   3   0   1      -2.4044072    
  dz111030   1   1   1   0   3   0   1       2.4287311    
  dz002030   0   0   2   0   3   0   2     -0.42668988    
  dz102030   1   0   2   0   3   0   1       4.1853683    
  dz012030   0   1   2   0   3   0   1      -4.2701940    
  dz000130   0   0   0   1   3   0   3      0.10334208    
  dz100130   1   0   0   1   3   0   2     -0.13307544    
  dz200130   2   0   0   1   3   0   1       1.6419518    
  dz110130   1   1   0   1   3   0   1       2.9755851    
  dz020130   0   2   0   1   3   0   1       2.2910929    
  dz001130   0   0   1   1   3   0   2      0.41140049    
  dz101130   1   0   1   1   3   0   1       3.0089421    
  dz011130   0   1   1   1   3   0   1       4.8921451    
  dz002130   0   0   2   1   3   0   1       2.9196813    
  dz000230   0   0   0   2   3   0   2      0.93247990E-02
  dz100230   1   0   0   2   3   0   1      0.52511611    
  dz001230   0   0   1   2   3   0   1     -0.38711826    
  dz000330   0   0   0   3   3   0   1      0.33935796    
  dz000040   0   0   0   0   4   0   3     -0.69374236E-01
  dz100040   1   0   0   0   4   0   2      0.70688382    
  dz200040   2   0   0   0   4   0   1      0.19062301    
  dz010040   0   1   0   0   4   0   2     -0.96248703E-01
  dz001040   0   0   1   0   4   0   2     -0.35098404    
  dz101040   1   0   1   0   4   0   1       1.6777463    
  dz002040   0   0   2   0   4   0   1     -0.58011278    
  dz000140   0   0   0   1   4   0   2      0.54041655E-01
  dz100140   1   0   0   1   4   0   1     -0.21677609    
  dz010140   0   1   0   1   4   0   1     -0.26888479    
  dz000240   0   0   0   2   4   0   1     -0.65358714E-01
  dz000050   0   0   0   0   5   0   2      0.11491525E-01
  dz100050   1   0   0   0   5   0   1      0.22089164    
  dz010050   0   1   0   0   5   0   1      0.34564596E-01
  dz001050   0   0   1   0   5   0   1     -0.81215160E-01
  dz000150   0   0   0   1   5   0   1     -0.31216424E-01
  dz000060   0   0   0   0   6   0   1      0.27394003E-01
  dz000001   0   0   0   0   0   1   6     -0.52198881E-01
  dz100001   1   0   0   0   0   1   5      0.44765204E-01
  dz200001   2   0   0   0   0   1   4     -0.32530448E-01
  dz300001   3   0   0   0   0   1   3      0.10595958    
  dz400001   4   0   0   0   0   1   2      0.32987765    
  dz500001   5   0   0   0   0   1   1      -1.1802446    
  dz010001   0   1   0   0   0   1   5      0.14202208    
  dz110001   1   1   0   0   0   1   4      0.15961383    
  dz210001   2   1   0   0   0   1   3     -0.65226522E-01
  dz310001   3   1   0   0   0   1   2      0.53238402    
  dz410001   4   1   0   0   0   1   1      -1.3588132    
  dz020001   0   2   0   0   0   1   4     -0.14667632E-01
  dz120001   1   2   0   0   0   1   3     -0.15396287    
  dz320001   3   2   0   0   0   1   1      0.12072962    
  dz030001   0   3   0   0   0   1   3     -0.67074924E-01
  dz130001   1   3   0   0   0   1   2     -0.14646235    
  dz230001   2   3   0   0   0   1   1     -0.26081198    
  dz040001   0   4   0   0   0   1   2     -0.12615979    
  dz050001   0   5   0   0   0   1   1      0.89999803    
  dz001001   0   0   1   0   0   1   5     -0.15167582    
  dz101001   1   0   1   0   0   1   4      0.49681236    
  dz201001   2   0   1   0   0   1   3     -0.56593359    
  dz301001   3   0   1   0   0   1   2      0.39454927    
  dz401001   4   0   1   0   0   1   1      -1.2775079    
  dz011001   0   1   1   0   0   1   4      0.24650391    
  dz111001   1   1   1   0   0   1   3     -0.38782017    
  dz211001   2   1   1   0   0   1   2       1.1158443    
  dz021001   0   2   1   0   0   1   3     -0.11165649    
  dz221001   2   2   1   0   0   1   1       5.3637723    
  dz031001   0   3   1   0   0   1   2     -0.47221972    
  dz131001   1   3   1   0   0   1   1      0.71197806    
  dz002001   0   0   2   0   0   1   4     -0.11503997    
  dz102001   1   0   2   0   0   1   3      0.69906673    
  dz202001   2   0   2   0   0   1   2     -0.39331099    
  dz302001   3   0   2   0   0   1   1      -9.5293186    
  dz012001   0   1   2   0   0   1   3      0.25739966    
  dz022001   0   2   2   0   0   1   2     -0.94224159    
  dz003001   0   0   3   0   0   1   3     -0.12549155    
  dz103001   1   0   3   0   0   1   2      0.80310590    
  dz203001   2   0   3   0   0   1   1     -0.95777746    
  dz013001   0   1   3   0   0   1   2      0.20923580E-01
  dz113001   1   1   3   0   0   1   1     -0.20051332E-01
  dz023001   0   2   3   0   0   1   1      0.29746374    
  dz004001   0   0   4   0   0   1   2     -0.21549494    
  dz104001   1   0   4   0   0   1   1      0.14046620    
  dz005001   0   0   5   0   0   1   1      0.36350879    
  dz000101   0   0   0   1   0   1   5      0.26192912    
  dz100101   1   0   0   1   0   1   4      0.48900429    
  dz200101   2   0   0   1   0   1   3     -0.39718030E-01
  dz300101   3   0   0   1   0   1   2     -0.12028316    
  dz400101   4   0   0   1   0   1   1     -0.61261177    
  dz010101   0   1   0   1   0   1   4      0.81794871E-01
  dz110101   1   1   0   1   0   1   3     -0.43465243    
  dz210101   2   1   0   1   0   1   2      0.88479091    
  dz020101   0   2   0   1   0   1   3     -0.98102795E-01
  dz030101   0   3   0   1   0   1   2     -0.17203109    
  dz130101   1   3   0   1   0   1   1       1.4864027    
  dz001101   0   0   1   1   0   1   4     -0.74306965    
  dz101101   1   0   1   1   0   1   3      0.99735797    
  dz201101   2   0   1   1   0   1   2     -0.72368706    
  dz301101   3   0   1   1   0   1   1      -2.9271709    
  dz011101   0   1   1   1   0   1   3      0.36662248    
  dz111101   1   1   1   1   0   1   2      -4.3355383    
  dz211101   2   1   1   1   0   1   1       42.115118    
  dz021101   0   2   1   1   0   1   2       2.0146264    
  dz121101   1   2   1   1   0   1   1      -10.024940    
  dz002101   0   0   2   1   0   1   3     -0.83281406    
  dz102101   1   0   2   1   0   1   2       2.7248323    
  dz202101   2   0   2   1   0   1   1       4.3860680    
  dz112101   1   1   2   1   0   1   1      0.45437572    
  dz022101   0   2   2   1   0   1   1       4.3899559    
  dz003101   0   0   3   1   0   1   2     -0.53748135    
  dz103101   1   0   3   1   0   1   1      -1.0926830    
  dz013101   0   1   3   1   0   1   1     -0.50575888    
  dz004101   0   0   4   1   0   1   1     -0.40132106    
  dz000201   0   0   0   2   0   1   4     -0.81633610E-01
  dz100201   1   0   0   2   0   1   3      0.13762475    
  dz300201   3   0   0   2   0   1   1      -2.1781943    
  dz010201   0   1   0   2   0   1   3     -0.21206823    
  dz110201   1   1   0   2   0   1   2      0.51241191    
  dz210201   2   1   0   2   0   1   1      -2.9355746    
  dz020201   0   2   0   2   0   1   2     -0.47207308    
  dz030201   0   3   0   2   0   1   1       1.6253756    
  dz001201   0   0   1   2   0   1   3      0.38197149    
  dz101201   1   0   1   2   0   1   2     -0.21652485    
  dz201201   2   0   1   2   0   1   1      -8.5225197    
  dz011201   0   1   1   2   0   1   2     -0.63400151    
  dz111201   1   1   1   2   0   1   1      -7.3048833    
  dz021201   0   2   1   2   0   1   1     -0.18092009    
  dz012201   0   1   2   2   0   1   1      -1.3455679    
  dz003201   0   0   3   2   0   1   1     -0.62030758    
  dz000301   0   0   0   3   0   1   3      0.24742602E-01
  dz100301   1   0   0   3   0   1   2      0.20894772    
  dz200301   2   0   0   3   0   1   1     -0.66247114    
  dz010301   0   1   0   3   0   1   2      0.13229029    
  dz110301   1   1   0   3   0   1   1      -1.8452099    
  dz020301   0   2   0   3   0   1   1     -0.83906222    
  dz001301   0   0   1   3   0   1   2     -0.41142596    
  dz101301   1   0   1   3   0   1   1     -0.59862158    
  dz011301   0   1   1   3   0   1   1     -0.50567523E-01
  dz002301   0   0   2   3   0   1   1     -0.67156300    
  dz000401   0   0   0   4   0   1   2      0.22590516E-01
  dz100401   1   0   0   4   0   1   1     -0.37177829    
  dz001401   0   0   1   4   0   1   1      0.43856364    
  dz000501   0   0   0   5   0   1   1     -0.40197368E-01
  dz000011   0   0   0   0   1   1   5      0.10757291    
  dz100011   1   0   0   0   1   1   4      0.11628224E-01
  dz200011   2   0   0   0   1   1   3     -0.34557581    
  dz300011   3   0   0   0   1   1   2      0.40771958    
  dz400011   4   0   0   0   1   1   1      0.43014259    
  dz010011   0   1   0   0   1   1   4     -0.15756691    
  dz110011   1   1   0   0   1   1   3     -0.23181763    
  dz210011   2   1   0   0   1   1   2      0.16693241E-01
  dz020011   0   2   0   0   1   1   3      0.10829863    
  dz120011   1   2   0   0   1   1   2       1.5437515    
  dz220011   2   2   0   0   1   1   1       3.8519155    
  dz130011   1   3   0   0   1   1   1      0.28726985    
  dz040011   0   4   0   0   1   1   1      0.57944098    
  dz001011   0   0   1   0   1   1   4      0.58561159E-01
  dz101011   1   0   1   0   1   1   3     -0.75657662E-01
  dz201011   2   0   1   0   1   1   2     -0.48928524    
  dz301011   3   0   1   0   1   1   1     -0.62712067    
  dz011011   0   1   1   0   1   1   3     -0.74303529E-01
  dz111011   1   1   1   0   1   1   2     -0.89873546    
  dz021011   0   2   1   0   1   1   2     -0.89019629    
  dz121011   1   2   1   0   1   1   1      -6.2347334    
  dz002011   0   0   2   0   1   1   3      0.36367432    
  dz202011   2   0   2   0   1   1   1       11.822243    
  dz112011   1   1   2   0   1   1   1      -6.8947165    
  dz022011   0   2   2   0   1   1   1     -0.96985265    
  dz003011   0   0   3   0   1   1   2     -0.59728264E-01
  dz013011   0   1   3   0   1   1   1     -0.13648125    
  dz004011   0   0   4   0   1   1   1     -0.48615684    
  dz000111   0   0   0   1   1   1   4      0.14493957E-02
  dz100111   1   0   0   1   1   1   3      -1.0255950    
  dz200111   2   0   0   1   1   1   2     -0.60593351    
  dz010111   0   1   0   1   1   1   3     -0.12190091E-01
  dz210111   2   1   0   1   1   1   1      -5.2208021    
  dz020111   0   2   0   1   1   1   2     -0.28741668    
  dz001111   0   0   1   1   1   1   3      0.93921071    
  dz101111   1   0   1   1   1   1   2      -3.4964476    
  dz201111   2   0   1   1   1   1   1      -5.7726577    
  dz011111   0   1   1   1   1   1   2      0.17893855    
  dz111111   1   1   1   1   1   1   1      -6.6246506    
  dz021111   0   2   1   1   1   1   1      -12.352604    
  dz002111   0   0   2   1   1   1   2       1.2435195    
  dz102111   1   0   2   1   1   1   1       1.3735230    
  dz012111   0   1   2   1   1   1   1       2.5660215    
  dz003111   0   0   3   1   1   1   1      -3.9252169    
  dz000211   0   0   0   2   1   1   3     -0.21532758    
  dz100211   1   0   0   2   1   1   2      0.37626008    
  dz200211   2   0   0   2   1   1   1       1.2198152    
  dz110211   1   1   0   2   1   1   1     -0.21653984    
  dz001211   0   0   1   2   1   1   2     -0.77629896    
  dz101211   1   0   1   2   1   1   1       1.8069569    
  dz002211   0   0   2   2   1   1   1       1.0872014    
  dz000311   0   0   0   3   1   1   2     -0.18507056E-01
  dz100311   1   0   0   3   1   1   1     -0.21337361    
  dz010311   0   1   0   3   1   1   1      0.45055792    
  dz001311   0   0   1   3   1   1   1      0.11719207    
  dz000411   0   0   0   4   1   1   1     -0.18197284    
  dz000021   0   0   0   0   2   1   4      0.97432733E-03
  dz100021   1   0   0   0   2   1   3      0.72122788E-01
  dz200021   2   0   0   0   2   1   2      0.98183620E-01
  dz300021   3   0   0   0   2   1   1     -0.66569812    
  dz010021   0   1   0   0   2   1   3     -0.23598353    
  dz120021   1   2   0   0   2   1   1       2.3661432    
  dz030021   0   3   0   0   2   1   1     -0.21935023    
  dz001021   0   0   1   0   2   1   3     -0.15507834    
  dz201021   2   0   1   0   2   1   1       1.0125072    
  dz011021   0   1   1   0   2   1   2     -0.41044369    
  dz021021   0   2   1   0   2   1   1      -1.6955312    
  dz002021   0   0   2   0   2   1   2     -0.24223055    
  dz102021   1   0   2   0   2   1   1       2.9975480    
  dz012021   0   1   2   0   2   1   1      -4.3445578    
  dz000121   0   0   0   1   2   1   3     -0.20394143    
  dz100121   1   0   0   1   2   1   2     -0.91394574    
  dz200121   2   0   0   1   2   1   1       2.0238487    
  dz110121   1   1   0   1   2   1   1      -1.9203402    
  dz001121   0   0   1   1   2   1   2       1.7088284    
  dz101121   1   0   1   1   2   1   1      -7.6653224    
  dz011121   0   1   1   1   2   1   1      0.28967721    
  dz002121   0   0   2   1   2   1   1       1.0834312    
  dz000221   0   0   0   2   2   1   2     -0.10666245    
  dz100221   1   0   0   2   2   1   1      0.93690058    
  dz010221   0   1   0   2   2   1   1     -0.29175765    
  dz001221   0   0   1   2   2   1   1      -1.0951167    
  dz000321   0   0   0   3   2   1   1      0.56711896E-02
  dz000031   0   0   0   0   3   1   3     -0.15207702    
  dz100031   1   0   0   0   3   1   2      0.16241092    
  dz200031   2   0   0   0   3   1   1      0.38132025    
  dz010031   0   1   0   0   3   1   2      0.11702705    
  dz110031   1   1   0   0   3   1   1      0.26546146    
  dz001031   0   0   1   0   3   1   2     -0.35329574    
  dz101031   1   0   1   0   3   1   1      0.47664004    
  dz011031   0   1   1   0   3   1   1     -0.64540136E-01
  dz002031   0   0   2   0   3   1   1     -0.84939873    
  dz000131   0   0   0   1   3   1   2      0.15267302    
  dz010131   0   1   0   1   3   1   1     -0.16840078    
  dz001131   0   0   1   1   3   1   1      0.35435200    
  dz000231   0   0   0   2   3   1   1     -0.10524517    
  dz000041   0   0   0   0   4   1   2      0.14792016E-01
  dz100041   1   0   0   0   4   1   1      0.13568260    
  dz010041   0   1   0   0   4   1   1      0.12365953    
  dz001041   0   0   1   0   4   1   1     -0.90017613E-01
  dz000141   0   0   0   1   4   1   1      0.15850473    
  dz000051   0   0   0   0   5   1   1      0.42306915E-01
  dz000002   0   0   0   0   0   2   5      0.53367784E-01
  dz100002   1   0   0   0   0   2   4      0.19079302    
  dz200002   2   0   0   0   0   2   3     -0.19590399    
  dz300002   3   0   0   0   0   2   2     -0.70526483E-01
  dz400002   4   0   0   0   0   2   1      0.12559985    
  dz010002   0   1   0   0   0   2   4      0.74189822E-01
  dz110002   1   1   0   0   0   2   3      0.30726591E-01
  dz210002   2   1   0   0   0   2   2     -0.11460875    
  dz020002   0   2   0   0   0   2   3     -0.17429013E-01
  dz120002   1   2   0   0   0   2   2     -0.21562487    
  dz030002   0   3   0   0   0   2   2     -0.15553934E-01
  dz130002   1   3   0   0   0   2   1     -0.29756453    
  dz040002   0   4   0   0   0   2   1      0.14250246    
  dz001002   0   0   1   0   0   2   4     -0.27834719E-01
  dz101002   1   0   1   0   0   2   3      0.25131939    
  dz201002   2   0   1   0   0   2   2     -0.27099418    
  dz301002   3   0   1   0   0   2   1      0.17787438    
  dz011002   0   1   1   0   0   2   3      0.18456642E-01
  dz111002   1   1   1   0   0   2   2      0.10059557    
  dz121002   1   2   1   0   0   2   1      0.76433747    
  dz031002   0   3   1   0   0   2   1      0.21650734    
  dz002002   0   0   2   0   0   2   3     -0.97517332E-01
  dz102002   1   0   2   0   0   2   2      0.25742890    
  dz202002   2   0   2   0   0   2   1     -0.24031359    
  dz012002   0   1   2   0   0   2   2      0.86173216E-01
  dz112002   1   1   2   0   0   2   1      0.25205762    
  dz022002   0   2   2   0   0   2   1      0.21382145    
  dz003002   0   0   3   0   0   2   2     -0.33162322E-01
  dz004002   0   0   4   0   0   2   1      0.18469636    
  dz000102   0   0   0   1   0   2   4      0.63420045E-01
  dz100102   1   0   0   1   0   2   3     -0.75234977E-01
  dz200102   2   0   0   1   0   2   2      0.36120653    
  dz300102   3   0   0   1   0   2   1     -0.31647267    
  dz010102   0   1   0   1   0   2   3     -0.21995334E-01
  dz110102   1   1   0   1   0   2   2     -0.12214465    
  dz020102   0   2   0   1   0   2   2      0.18753527    
  dz030102   0   3   0   1   0   2   1      0.23261044    
  dz001102   0   0   1   1   0   2   3      0.85093361E-01
  dz101102   1   0   1   1   0   2   2     -0.34712255    
  dz201102   2   0   1   1   0   2   1       1.1212185    
  dz111102   1   1   1   1   0   2   1      -2.8921397    
  dz021102   0   2   1   1   0   2   1     -0.44492553    
  dz002102   0   0   2   1   0   2   2      0.17456560    
  dz102102   1   0   2   1   0   2   1     -0.92087718    
  dz012102   0   1   2   1   0   2   1      0.65701667    
  dz003102   0   0   3   1   0   2   1      0.62203723E-01
  dz000202   0   0   0   2   0   2   3     -0.14650979    
  dz200202   2   0   0   2   0   2   1     -0.22320677    
  dz010202   0   1   0   2   0   2   2     -0.51215499E-01
  dz110202   1   1   0   2   0   2   1      0.49958585    
  dz020202   0   2   0   2   0   2   1      0.29958535    
  dz001202   0   0   1   2   0   2   2     -0.12839860    
  dz101202   1   0   1   2   0   2   1      0.67144963    
  dz011202   0   1   1   2   0   2   1     -0.38342138    
  dz002202   0   0   2   2   0   2   1      0.26030470    
  dz000302   0   0   0   3   0   2   2      0.13085618    
  dz100302   1   0   0   3   0   2   1     -0.13991917    
  dz010302   0   1   0   3   0   2   1     -0.38929170E-01
  dz001302   0   0   1   3   0   2   1      0.17665230    
  dz000402   0   0   0   4   0   2   1     -0.13713502    
  dz000012   0   0   0   0   1   2   4      0.58418080E-01
  dz100012   1   0   0   0   1   2   3      0.34931162E-01
  dz200012   2   0   0   0   1   2   2     -0.11284602    
  dz300012   3   0   0   0   1   2   1     -0.20670670    
  dz010012   0   1   0   0   1   2   3      0.17737344E-01
  dz110012   1   1   0   0   1   2   2      0.10941535    
  dz210012   2   1   0   0   1   2   1     -0.48818922    
  dz120012   1   2   0   0   1   2   1      -1.3433554    
  dz030012   0   3   0   0   1   2   1     -0.18866032    
  dz001012   0   0   1   0   1   2   3     -0.78318714E-01
  dz101012   1   0   1   0   1   2   2      0.70369380E-01
  dz201012   2   0   1   0   1   2   1      0.21657878    
  dz011012   0   1   1   0   1   2   2     -0.15134726    
  dz021012   0   2   1   0   1   2   1      0.89325815    
  dz002012   0   0   2   0   1   2   2     -0.15491930E-01
  dz102012   1   0   2   0   1   2   1     -0.47674517    
  dz012012   0   1   2   0   1   2   1     -0.89750240    
  dz003012   0   0   3   0   1   2   1      0.15121856    
  dz000112   0   0   0   1   1   2   3      0.81243719E-01
  dz100112   1   0   0   1   1   2   2     -0.16856355    
  dz200112   2   0   0   1   1   2   1      0.62912244    
  dz010112   0   1   0   1   1   2   2      0.68487005E-01
  dz020112   0   2   0   1   1   2   1      0.41963707    
  dz001112   0   0   1   1   1   2   2      0.12568917    
  dz101112   1   0   1   1   1   2   1     -0.83715188    
  dz002112   0   0   2   1   1   2   1      0.51383636    
  dz000212   0   0   0   2   1   2   2     -0.11755728    
  dz100212   1   0   0   2   1   2   1      0.34314081    
  dz010212   0   1   0   2   1   2   1     -0.22666429    
  dz001212   0   0   1   2   1   2   1     -0.16158791    
  dz000312   0   0   0   3   1   2   1      0.12514026    
  dz000022   0   0   0   0   2   2   3     -0.44163684E-01
  dz100022   1   0   0   0   2   2   2     -0.86114164E-01
  dz200022   2   0   0   0   2   2   1      0.13871700    
  dz010022   0   1   0   0   2   2   2     -0.75768354E-01
  dz110022   1   1   0   0   2   2   1      0.16479669    
  dz020022   0   2   0   0   2   2   1      0.16501604    
  dz001022   0   0   1   0   2   2   2     -0.19998813    
  dz101022   1   0   1   0   2   2   1      0.18310096    
  dz011022   0   1   1   0   2   2   1     -0.19042525    
  dz000122   0   0   0   1   2   2   2      0.43858974E-01
  dz100122   1   0   0   1   2   2   1     -0.19985193    
  dz001122   0   0   1   1   2   2   1      0.12592520    
  dz000222   0   0   0   2   2   2   1     -0.28074696E-01
  dz000032   0   0   0   0   3   2   2     -0.79420937E-01
  dz100032   1   0   0   0   3   2   1      0.11104469    
  dz001032   0   0   1   0   3   2   1     -0.18644044    
  dz000132   0   0   0   1   3   2   1      0.38541787E-01
  dz000042   0   0   0   0   4   2   1     -0.28480321E-01
  dz000003   0   0   0   0   0   3   4     -0.26649529E-02
  dz100003   1   0   0   0   0   3   3      0.27464771E-02
  dz200003   2   0   0   0   0   3   2     -0.98268152E-02
  dz300003   3   0   0   0   0   3   1      0.10523268E-01
  dz010003   0   1   0   0   0   3   3     -0.92073819E-02
  dz110003   1   1   0   0   0   3   2      0.16373132E-01
  dz210003   2   1   0   0   0   3   1     -0.37221570E-01
  dz120003   1   2   0   0   0   3   1      0.35430290E-01
  dz030003   0   3   0   0   0   3   1      0.29576106E-01
  dz001003   0   0   1   0   0   3   3      0.23183633E-02
  dz201003   2   0   1   0   0   3   1     -0.10563923E-01
  dz011003   0   1   1   0   0   3   2     -0.20872059E-01
  dz111003   1   1   1   0   0   3   1      0.13436707    
  dz002003   0   0   2   0   0   3   2      0.89043416E-02
  dz102003   1   0   2   0   0   3   1     -0.34703314E-01
  dz012003   0   1   2   0   0   3   1     -0.66389006E-01
  dz003003   0   0   3   0   0   3   1      0.42685313E-01
  dz000103   0   0   0   1   0   3   3     -0.62274951E-02
  dz100103   1   0   0   1   0   3   2     -0.61860878E-01
  dz200103   2   0   0   1   0   3   1      0.25360167E-01
  dz010103   0   1   0   1   0   3   2      0.61924868E-02
  dz110103   1   1   0   1   0   3   1     -0.98485747E-01
  dz020103   0   2   0   1   0   3   1     -0.31121953E-01
  dz001103   0   0   1   1   0   3   2      0.25797939E-01
  dz101103   1   0   1   1   0   3   1     -0.23723970    
  dz011103   0   1   1   1   0   3   1      0.64207629E-01
  dz000203   0   0   0   2   0   3   2     -0.34006460E-02
  dz100203   1   0   0   2   0   3   1      0.61145174E-01
  dz010203   0   1   0   2   0   3   1     -0.18076281E-01
  dz001203   0   0   1   2   0   3   1     -0.40653819E-01
  dz000303   0   0   0   3   0   3   1      0.16849373E-01
  dz000013   0   0   0   0   1   3   3     -0.85245544E-02
  dz100013   1   0   0   0   1   3   2      0.32158283E-01
  dz200013   2   0   0   0   1   3   1     -0.66528166E-01
  dz110013   1   1   0   0   1   3   1      0.54273795E-01
  dz020013   0   2   0   0   1   3   1     -0.50349747E-01
  dz001013   0   0   1   0   1   3   2     -0.24957139E-01
  dz101013   1   0   1   0   1   3   1      0.15997226    
  dz011013   0   1   1   0   1   3   1     -0.15747576E-01
  dz002013   0   0   2   0   1   3   1     -0.11447610    
  dz000113   0   0   0   1   1   3   2      0.30753500E-01
  dz100113   1   0   0   1   1   3   1     -0.64225682E-01
  dz010113   0   1   0   1   1   3   1      0.42622651E-01
  dz001113   0   0   1   1   1   3   1      0.10014589    
  dz000213   0   0   0   2   1   3   1     -0.63663672E-01
  dz000023   0   0   0   0   2   3   2     -0.58455924E-02
  dz100023   1   0   0   0   2   3   1      0.48587673E-01
  dz010023   0   1   0   0   2   3   1      0.17479607E-01
  dz001023   0   0   1   0   2   3   1     -0.41209108E-01
  dz000123   0   0   0   1   2   3   1      0.61614596E-01
  dz000033   0   0   0   0   3   3   1      0.73894694E-03
  dz000004   0   0   0   0   0   4   3     -0.29768096E-02
  dz100004   1   0   0   0   0   4   2     -0.48137821E-02
  dz200004   2   0   0   0   0   4   1      0.60751690E-02
  dz010004   0   1   0   0   0   4   2     -0.28688332E-02
  dz020004   0   2   0   0   0   4   1      0.25647769E-02
  dz001004   0   0   1   0   0   4   2     -0.14672249E-02
  dz011004   0   1   1   0   0   4   1     -0.11031115E-01
  dz000104   0   0   0   1   0   4   2      0.28209361E-02
  dz100104   1   0   0   1   0   4   1     -0.81350901E-02
  dz010104   0   1   0   1   0   4   1      0.10263928E-01
  dz001104   0   0   1   1   0   4   1      0.67847520E-02
  dz000204   0   0   0   2   0   4   1     -0.21660590E-02
  dz000014   0   0   0   0   1   4   2     -0.52236826E-02
  dz100014   1   0   0   0   1   4   1      0.26575666E-02
  dz010014   0   1   0   0   1   4   1     -0.46171554E-02
  dz001014   0   0   1   0   1   4   1     -0.38248711E-02
  dz000114   0   0   0   1   1   4   1      0.10880082E-01
  dz000024   0   0   0   0   2   4   1     -0.16134153E-02
  dz000005   0   0   0   0   0   5   2     -0.11581881E-03
  dz100005   1   0   0   0   0   5   1      0.10025371E-02
  dz001005   0   0   1   0   0   5   1     -0.79258327E-03
  dz000105   0   0   0   1   0   5   1      0.17132308E-02
  dz000015   0   0   0   0   1   5   1     -0.20269989E-03
  dz000006   0   0   0   0   0   6   1      0.10735811E-03
end
